!------ mesh data ------
     9866           ! nel
     4937           ! nnode
## Node Coordinates
1 1 2
1 1 0
1 1 -0.25
1 1 -2.25
1.078459095727844 1 0.003082666266871925
1.156434465040231 1 0.01231165940486223
1.233445363855905 0.9999999999999999 0.02763007960232322
1.309016994374947 0.9999999999999999 0.04894348370484636
1.382683432365089 0.9999999999999999 0.07612046748871304
1.453990499739547 0.9999999999999999 0.1089934758116321
1.522498564715948 0.9999999999999999 0.1473598356459075
1.587785252292473 0.9999999999999999 0.1909830056250524
1.649448048330183 0.9999999999999999 0.2395940343999686
1.707106781186547 0.9999999999999998 0.2928932188134523
1.760405965600031 0.9999999999999998 0.3505519516698158
1.809016994374947 0.9999999999999998 0.412214747707526
1.852640164354091 0.9999999999999998 0.4775014352840498
1.891006524188367 0.9999999999999998 0.5460095002604521
1.923879532511286 0.9999999999999998 0.6173165676349088
1.951056516295153 0.9999999999999998 0.6909830056250507
1.972369920397676 0.9999999999999998 0.766554636144093
1.987688340595137 0.9999999999999998 0.8435655349597672
1.996917333733128 0.9999999999999998 0.9215409042721526
2 0.9999999999999998 0.9999999999999971
1.996917333733128 0.9999999999999998 1.078459095727843
1.987688340595138 0.9999999999999998 1.156434465040228
1.972369920397677 0.9999999999999998 1.233445363855902
1.951056516295155 0.9999999999999998 1.309016994374945
1.923879532511288 0.9999999999999998 1.382683432365087
1.89100652418837 0.9999999999999998 1.453990499739543
1.852640164354094 0.9999999999999998 1.522498564715945
1.80901699437495 0.9999999999999998 1.58778525229247
1.760405965600034 0.9999999999999998 1.64944804833018
1.707106781186551 0.9999999999999998 1.707106781186544
1.649448048330187 0.9999999999999999 1.760405965600028
1.587785252292477 0.9999999999999999 1.809016994374945
1.522498564715952 0.9999999999999999 1.85264016435409
1.45399049973955 0.9999999999999999 1.891006524188366
1.382683432365093 0.9999999999999999 1.923879532511285
1.30901699437495 0.9999999999999999 1.951056516295153
1.233445363855907 0.9999999999999999 1.972369920397676
1.156434465040232 1 1.987688340595138
1.078459095727846 1 1.996917333733128
1.078459095727844 1 -2.246917333733128
1.156434465040231 1 -2.237688340595138
1.233445363855905 0.9999999999999999 -2.222369920397677
1.309016994374947 0.9999999999999999 -2.201056516295154
1.382683432365089 0.9999999999999999 -2.173879532511287
1.453990499739547 0.9999999999999999 -2.141006524188368
1.522498564715948 0.9999999999999999 -2.102640164354093
1.587785252292473 0.9999999999999999 -2.059016994374947
1.649448048330183 0.9999999999999999 -2.010405965600031
1.707106781186547 0.9999999999999998 -1.957106781186548
1.760405965600031 0.9999999999999998 -1.899448048330184
1.809016994374947 0.9999999999999998 -1.837785252292474
1.852640164354091 0.9999999999999998 -1.77249856471595
1.891006524188367 0.9999999999999998 -1.703990499739548
1.923879532511286 0.9999999999999998 -1.632683432365091
1.951056516295153 0.9999999999999998 -1.559016994374949
1.972369920397676 0.9999999999999998 -1.483445363855907
1.987688340595137 0.9999999999999998 -1.406434465040233
1.996917333733128 0.9999999999999998 -1.328459095727847
2 0.9999999999999998 -1.250000000000003
1.996917333733128 0.9999999999999998 -1.171540904272157
1.987688340595138 0.9999999999999998 -1.093565534959772
1.972369920397677 0.9999999999999998 -1.016554636144098
1.951056516295155 0.9999999999999998 -0.9409830056250554
1.923879532511288 0.9999999999999998 -0.8673165676349133
1.89100652418837 0.9999999999999998 -0.7960095002604566
1.852640164354094 0.9999999999999998 -0.7275014352840548
1.80901699437495 0.9999999999999998 -0.66221474770753
1.760405965600034 0.9999999999999998 -0.6005519516698196
1.707106781186551 0.9999999999999998 -0.5428932188134558
1.649448048330187 0.9999999999999999 -0.4895940343999718
1.587785252292477 0.9999999999999999 -0.4409830056250553
1.522498564715952 0.9999999999999999 -0.39735983564591
1.45399049973955 0.9999999999999999 -0.3589934758116339
1.382683432365093 0.9999999999999999 -0.3261204674887146
1.30901699437495 0.9999999999999999 -0.2989434837048474
1.233445363855907 0.9999999999999999 -0.2776300796023238
1.156434465040232 1 -0.2623116594048625
1.078459095727846 1 -0.253082666266872
1.829497118191417 0.931753657041856 0.4456743127141101
1.093531159466258 1.071182596258208 0.006931543045073707
1.991884230508016 0.934147425376177 1.108761719759
1.34388984494006 0.9305012086454058 0.06356543605687415
1.677423697360151 1.06758947533664 1.732481260564815
1.193117470705647 1.065826031718616 1.97896505354197
1.936020843287467 1.067982497931917 1.345316320069521
1.976874569949396 1.073427412797415 0.7991904144816273
1.732623664501362 1.067982497931973 0.3227696505711484
1.351735354803528 1.074455396684493 0.06686622926517594
1.86952489688119 0.9336077249831661 1.489406292891545
1.487490823036024 0.9320175020680106 1.870477499669341
1.117265476329222 0.9320175020635977 1.990771006860621
1.48749082303606 1.067982497931967 1.870477499669323
1.618253634514591 0.9320400378463253 0.2169649516442006
1.97854125031011 0.9320189374191432 0.8054862560848084
1.039168988720165 0.9320175020680335 0.003082666266871592
1.829546018893992 1.067982497931959 1.554284928995963
1.564668350989558 1.069813570724984 0.1776401525284924
1.99077100686201 1.067982497931966 1.117265476320053
1.677315467397365 0.9318433522210318 1.732528790552168
1.9093480005094 1.07468511507264 0.5907221633704756
1.345316320069304 0.9320175020680672 1.936020843287546
1.348282874163308 1.068630896817062 1.934873702468217
1.487490823036056 0.9320175020680326 0.1295225003306754
1.906042197196054 0.932017502068033 0.5823088259550161
1.194638983263695 0.9320175020680334 0.02148375273120517
1.936680541657834 0.9330475083303528 1.343725074352764
1.996917333733128 1.067982497931967 0.9608310112798222
1.82954601889399 1.067982497931967 0.445715071004035
1.783500111060135 0.9320175020680331 1.617661684050166
1.996927021502462 0.9320781605363128 0.9609726054917999
1.732623664501362 0.9320175020680327 0.3227696505711476
1.039168988720184 1.067982497931958 1.996917333733128
1.171137159328557 1.076992954186855 0.01776573176123974
1.253276252655156 1.081466874157147 0.03604238254162584
1.270812476150712 1.067982497931662 1.960228609621736
1.227939754071327 1.136045185583605 1.964124045957482
1.151042957426067 1.135787502722439 1.979156667299157
1.306190425883536 1.134945427986518 1.942357232986936
1.379670117220148 1.135238594427955 1.91518365625004
1.417691174045649 0.9320175020679224 0.09395780280426114
1.732623664501366 1.067982497931955 1.67723034942885
1.699142351192581 1.135186488568981 1.70208588226605
1.642958575479736 1.134296666284841 1.754034929987893
1.753393162021914 1.139737024400407 1.642551404504218
1.870477499669387 0.9320175020679856 0.5125091769640622
1.782906417238812 1.070164927938514 1.618170223104987
1.80086724224523 1.137606063354228 1.582817494269581
1.845019982254306 1.138757197524728 1.516418115218682
1.617078230515918 1.066774849202899 1.784063503127951
1.57954052757362 1.133772588894455 1.803889091454888
1.86998482524141 1.06877783588217 1.488258141909624
1.8832420404259 1.135163621725339 1.449014803081571
1.997229281917603 0.9344550073551185 1.035179727475994
1.039168988720176 0.9320175020680322 1.996917333733128
1.960186219691727 0.9321224474982817 0.7290109570840803
1.555241933621836 0.9320445317085496 0.1710920138657283
1.414792169729913 0.934567282504507 1.907560474795981
1.444498119801948 0.8662046119971343 1.885731457972277
1.081152938773182 0.860346992332638 1.986869412829244
1.513083665081109 0.8611481117407437 1.847033237691281
1.469730041621885 0.7966797711702802 1.859077745344699
1.400032208062054 0.8021090014194869 1.894881771628971
1.423864271507193 0.733271551082192 1.865560520054824
1.49216070740839 0.7285618777804304 1.827102885915161
1.358256529701668 0.7365642141459862 1.895686242864987
1.155699219338798 0.8646707187320535 1.978490540950085
1.115772774735347 0.7973398610627888 1.972381372053182
1.19333022980803 0.7982382012275719 1.96016436030426
1.152924496290278 0.731529809749065 1.951071950685642
1.444885498230594 0.665988044129435 1.830971062552503
1.51173404158319 0.6622126302937575 1.789954405995607
1.990065859997364 0.8594500408448628 1.003911757810698
1.844556845750014 0.8640254663899501 0.4820862422117782
1.582759958340362 0.8649939095953796 0.1986485249849479
1.963339747313908 0.8643496784256117 0.7685361334852893
1.380599869580146 0.862063438885633 0.08560553130308246
1.557459384761439 0.7257265841000859 1.783589897632678
1.575382193715474 0.6603222730320131 1.744012347314902
1.619358746493662 0.7247839689879897 1.73528965681274
1.635437219078513 0.6603288827370845 1.693428491415754
1.677476727095935 0.7257397862991984 1.682500270640364
1.691528438012356 0.6622324338736769 1.638515066927392
1.731454595599303 0.7285881322888128 1.625547578240205
1.743309629808147 0.6660211777972393 1.579611025218234
1.781166780185469 0.7331351886562074 1.564412645146359
1.790282216738193 0.6722644566045382 1.517729110155734
1.825684901147305 0.7398805112094318 1.500581956894871
1.832692037618707 0.6791492086613902 1.451307810904923
1.865355704742804 0.7482548422879686 1.433340374114424
1.870850195901825 0.6892001551540237 1.380819370228814
1.899712669865885 0.7559878688417293 1.36190494819828
1.901550057511241 0.6991922175299546 1.31100188392827
1.928920975394725 0.7661623442003684 1.287098889238267
1.92752814270155 0.7112242528356982 1.237276447095601
1.95232137260519 0.7817436915754618 1.21318580419967
1.947978190300254 0.7270844864343178 1.163873344904641
1.306926339309512 0.8584047746185256 0.05885866396846018
1.801708649476955 0.8636116400665732 0.4180537338993346
1.717046248847565 0.7925443709471459 1.665437329121173
1.978672107502347 0.8645590835236987 0.8455439734391236
1.960497699554772 0.7973097468185435 0.8093148395516142
1.814007495002504 0.7965585746652324 0.4559380692076438
1.341802457675844 0.793115390438635 0.08328311990375448
1.264755222998952 0.7912494136642219 0.05855012634806533
1.768073386604093 0.7963230712747282 0.3928929406640373
1.942286909895747 0.7976323833593315 0.7332740598023871
1.93641622840406 0.7312080186266279 0.7744439805039713
1.867726936313157 0.619297827142006 1.319555659592792
1.778556341640265 0.7302319623154843 0.4333649951374577
1.301614157346403 0.7255854421711667 0.08691426988489992
1.750443930016527 0.6054038928261234 1.530214881066697
1.462982379246606 0.6006760866036867 1.791320244083902
1.224353487060462 0.7242605338371559 0.06531649225845382
1.729925923733375 0.730793938415401 0.3717196149265134
1.738705482640843 0.6653979889491768 0.4148882977438376
1.259752689637952 0.6596683048273817 0.09628385126369365
1.182393115488457 0.6590724126828776 0.07777381753252088
1.68749467974573 0.666961174584829 0.3546813143202817
1.693759158718984 0.6026651352428161 0.3993143626305699
1.64141303593712 0.6050449657156078 0.3422767768860964
1.644934409883798 0.5422131430600963 0.3880434651374974
1.696062626298822 0.5407531732818431 0.4481040202906987
1.648219776648506 0.482624680578565 0.4413105513656723
1.694994065192686 0.4818002285437876 0.5015501567763576
1.645041715905918 0.4259404114261549 0.4956422167671282
1.688994322397697 0.4264217932324578 0.5569482373073439
1.632752994664519 0.3708763919128897 0.5485278153744808
1.677658497509754 0.3745430776777671 0.6132409030520118
1.620511203327579 0.3209005527916704 0.6078395897769627
1.5737829802092 0.3191686832903609 0.544761809807583
1.56060526286027 0.2699212525258637 0.6092228745947841
1.511782980517309 0.2710353966466051 0.5453696139602557
1.495480924504926 0.2261088882395671 0.6055494953863724
1.44575075622702 0.2284707574527421 0.5460739143676643
1.42776117195319 0.1862007394786473 0.6066157815263391
1.376912363270599 0.1907205978399794 0.5494404371747377
1.358442878825133 0.1501040320251913 0.6137416069006218
1.305926957333676 0.1578756403799504 0.5558882351129608
1.286647845979302 0.1196868208076619 0.6220030172928557
1.233036905515281 0.1301820680497163 0.5651315533111265
1.212865367850355 0.09467463968797785 0.6324754060666953
1.158656682659254 0.1079302746806634 0.5768692138165269
1.137821689429424 0.07528237497278223 0.6451725829549788
1.191547775158136 0.06483184930595254 0.7020570864084139
1.115937253020221 0.04833037142553376 0.7155998041297039
1.169040206938139 0.04089723733230644 0.7729596972308459
1.093167243753337 0.02719269812481562 0.7879485484375781
1.039712747712364 0.03764452361345838 0.7311230118846787
1.016708865019559 0.01954203758556816 0.8039821493641488
1.069964999036263 0.01215334440280713 0.8612056055335929
0.9934016101252541 0.007493254053672072 0.8779884411127696
1.04655768625629 0.003158891114181106 0.9356557268612693
0.9700617231477352 0.001561441219967596 0.9528391696386821
1.023067697294758 0.0003210636435591052 1.010483584633717
0.9464341302663586 0.001817457536838929 1.027609953304165
0.8936639096379408 0.006113652708092721 0.9702920119620586
0.8702080876387494 0.00947050033976371 1.044781355366396
1.074951601333089 0.7313589729998454 1.96031987174582
0.999633322964262 0.003649097238243582 1.085350712438645
1.111751676976449 0.6663779549131215 1.93605977038061
1.033490525158693 0.6671368526382789 1.942380236344674
1.070066396633958 0.6031846891107546 1.915220360955002
1.076212555084945 0.00523500508825292 1.068075335810088
1.053215258067443 0.01154878242293711 1.141888430744854
1.129041384776979 0.01628403692958946 1.125104856081987
1.605312437218835 0.2755976009184914 0.6700939261651145
1.105848258025923 0.02557908567099143 1.198242346614179
1.18122810216332 0.03339995938333784 1.181220132618173
1.157006993613693 0.04571103460077597 1.254325331954307
1.079457622723206 0.04131570422307196 1.273149972033446
1.232450586453658 0.05647712498320967 1.236074795726695
1.207575325613252 0.07184881108289964 1.308946362186586
1.282392668554655 0.08537309068639298 1.289330256810483
1.25691824943119 0.1034733726318207 1.360878122818564
0.9631960595774516 0.0329450822140851 0.7481066575801362
1.178313629412445 0.1460725524676683 0.5111112970044429
1.33074608261331 0.1199094970985389 1.340657798294128
1.355327733766049 0.1043497571129072 1.267493633630737
1.402725356814839 0.1417410829600699 1.318125632887083
1.426188076088686 0.1288840166279216 1.243968578537321
1.304207509960386 0.1408683096245996 1.411522210186047
1.22935649117536 0.1272583613574195 1.430949686315225
1.275979293720207 0.1672106891164438 1.479893105926504
1.200364741836398 0.1560488455519694 1.497594633345929
1.218094171785066 0.5957069198545513 0.1117533914616438
1.139136129010728 0.5960840442007724 0.0958467838608843
1.472254570903632 0.1689494992286114 1.293820838995893
1.494382298275577 0.1588384496812412 1.219165210325682
1.103413221273919 0.1265160767761557 0.5242568534017198
1.122635262763114 0.1673249811033721 0.4599880508428333
1.047423645696629 0.1501862058935437 0.4750547522119757
1.393388926200315 0.2352069764691467 0.4897679117288891
1.066345478442171 0.1938081740401056 0.4120773713780607
0.9909205478796379 0.1794415802139706 0.4285094547873533
1.246235671625519 0.198774038106257 1.545348468418658
1.169915162587601 0.1903363346003217 1.561759367037513
1.148046876237461 0.6035533774641604 1.906042050854294
1.321060633808573 0.2122735867287796 1.525744393458738
1.418380717046813 0.1506129407712496 0.6782870857144063
1.538904558101135 0.2013668028529972 1.267893437158465
1.559521886524085 0.1937937473728195 1.192267357409851
1.590051447244374 0.4764487269102063 0.3853998421324024
1.009791723288657 0.2253586646456219 0.3676749856953117
1.290441269311043 0.2462898213758175 1.589546296502058
1.364404631304735 0.2619130988698187 1.567835355595006
1.445819983775413 0.1215083315443503 1.171746704540434
1.10602489117633 0.5415846796076829 1.882391135767272
1.027737185817468 0.5418164182434659 1.888424703580264
1.602263923561724 0.238792899096819 1.24050346340669
1.621048427491127 0.2335821164035186 1.164019750073853
1.085099119900793 0.2421656103970035 0.3531266138360892
1.028398880565614 0.2760818029483869 0.3106989427251965
0.9530325286405766 0.2615882022921699 0.3272875252829094
0.9716551118764805 0.3140731149364085 0.2728818007612354
1.579355612881526 0.2473057674828436 1.312727463069812
1.063524526839151 0.4823500660187321 1.853231024013456
0.9851312762627037 0.4848069031758954 1.856945152293432
1.661955299036915 0.280955816399036 1.211638002510351
1.678700382741573 0.2781297293548212 1.135163245096802
1.635757885836761 0.2330573585511272 1.087240445458504
1.691423670858156 0.2798583828398163 1.057700594545877
1.732253325070215 0.3271509335134749 1.105257786656502
1.742776187363885 0.3310250858998359 1.027497268770715
1.139168374887481 0.480727342464644 1.843201085487529
1.333658001634749 0.6639841884243645 0.1192243689132444
1.020808115440782 0.4262151603727277 1.818741705390478
0.9424056961504497 0.4303530663922635 1.819869054907787
0.9068407190544615 0.4906194903202812 1.855483982744353
0.8643478591368006 0.4378313616980521 1.81582162191803
0.829136101094762 0.4997519494496284 1.848856534386968
0.7868684245474796 0.4480262966010566 1.80616373169548
0.7524970515726894 0.512147910761241 1.837103714927347
0.7111880687519645 0.4626041485208009 1.792334125973207
0.6768258877728691 0.5261675754404482 1.81917112169694
0.6370314891305771 0.4797457308288501 1.773039038811383
0.6715301042356858 0.4158673700934069 1.742224088975147
0.5987394379498916 0.435097571320147 1.721023721811449
0.6346630783091627 0.3733767534259929 1.688383788669165
0.5627568253709657 0.3940619713576502 1.664573180082786
0.8176649747219857 0.01684509598272932 0.9873361434129581
0.7948240946489313 0.0232319535755604 1.061863004676085
0.74278358157059 0.0336546272811552 1.00404162284529
0.7207449709524651 0.04301988027270909 1.078776133431391
0.599919418664306 0.334243873721657 1.629844670344164
0.5307775202604549 0.3572685116541647 1.605579473228592
0.6695272909596359 0.05641292065202252 1.020765651135387
0.6484352413453784 0.06871080046244804 1.095407794738288
0.5984879556521205 0.08494282498835659 1.038189588938572
0.6177452223848954 0.07717196783755775 0.9523585469824739
0.5783412352365114 0.1001461377888863 1.111655330199103
0.5297226847864664 0.1191597029139275 1.054402369662272
1.855501565480591 1.207805729825754 1.474271915794983
1.338975371972968 1.202240789237122 1.918800500851265
1.662590180019822 1.202035862663114 1.721218249588342
0.5108956055627427 0.1371318586706618 1.12741845243534
0.7001034603515019 0.05846525579528195 1.153539542015121
0.6730072561762621 0.3155537179938231 1.65162031316906
0.7195856855785645 0.5787567739842275 1.862509105345202
0.6453194380037196 0.5952210608877603 1.842826025578928
0.528127593718525 0.4575902303115391 1.695074149955702
0.6885854601600723 0.648019335419153 1.882683746387975
0.6393644987259126 0.278267303818249 1.590799416454526
0.7135352933790432 0.2619853758009802 1.610960216649946
0.6809129294318794 0.2271898834558804 1.548587244805527
0.755952868239879 0.2127624146287772 1.566302023357276
1.123456092568849 0.1503483074930926 1.51268956945483
1.092570192517224 0.1870125576574121 1.57487579358552
1.730811581232363 0.4319755181066187 0.6214995102956822
1.781331493769114 0.3803938977476089 1.074895760201257
1.78951764681268 0.3862795108414775 0.9969922502778051
1.103531068894736 0.2951761487025498 0.2982132400680791
1.332692117227205 0.2984876505149928 1.630235177259176
1.405497106478472 0.3165886665653638 1.607059343038783
1.202560238576567 0.02671204190145871 1.108073587745463
0.7242439171348132 0.1806147780467883 1.502559887782077
0.6500780814374976 0.1972601776917832 1.482869991395313
1.183925485230786 1.202338525171753 1.961889046155501
1.646384338379673 0.2370488349943876 1.009633634519319
1.104844768811417 0.6598627905033203 0.06548715730136034
1.061211147572416 0.5980230321392443 0.08639849347631823
1.026663444968024 0.6629473879219469 0.05889182481831634
0.9828941707230651 0.6022484791336886 0.0826662994017473
0.9483317139188913 0.6683071611489384 0.058028530756709
0.9046686071447149 0.6087343047666098 0.08467323798011717
0.8703330755837235 0.6759090269142296 0.06290260384699498
0.827017301526345 0.6174404755689507 0.09240692141474449
0.7916822096497962 0.6841217645646807 0.07435177383528813
0.896369781339286 0.3018114510714399 0.2916261383101687
1.825631955462224 0.4375299816182305 1.044264574337001
1.830710220263919 0.4453420033466319 0.9523026552359256
1.045437500265567 0.1490894381261544 1.523341809204227
1.257928624929289 0.2845114423034417 1.649268009567224
0.9992873407412249 0.8646707187392495 1.990800422764458
0.9606556034967814 0.932748145396961 1.996959982404634
0.7653912948149446 0.03062942072230479 0.9273402760656392
0.8780148216438922 0.2515095911243034 0.3481704792796502
0.8217487422624532 0.2944270938416906 0.3141477103557208
0.8035299553782834 0.2452940350841594 0.3740459856452786
0.7479822548620398 0.2907210003931647 0.3416609104326973
0.7504195539886473 0.6283132529831864 0.1058196138022074
0.7308725095900352 0.2448185414663397 0.4022781929755214
0.6759887463196735 0.2922495001791585 0.3722214263835917
0.6596561355995771 0.2482474032541472 0.435168974603153
0.6057979456333356 0.2979314151562732 0.4069532543646932
0.4635324053818596 0.1588857944585688 1.068770728955228
0.4465146582484008 0.1794396699660169 1.142599864097537
0.4007751488599296 0.20378059960535 1.083452047376589
0.3855957825641401 0.226808428106781 1.157105858421389
0.4195172934859283 0.185782764341664 1.009493186767139
0.3586806057877528 0.2331046400881573 1.024102729159202
0.3769428002501006 0.2192659792388385 0.9525224825214693
0.5905992626363301 0.2561736001739779 0.4716882329836463
0.5379816043492831 0.3080896582483188 0.4452035679121491
0.5545020455634668 0.3519993759377245 0.382240529163845
0.4880866486237115 0.3642260563486986 0.4223009319232299
0.3200309681717619 0.2675847951333643 0.9652137464688644
0.5060850576461775 0.4101175528962611 0.3611833374758256
0.4409171539916796 0.4240139068364543 0.4036222742410377
0.7172558254058254 0.6976377973043248 0.08970728327967037
0.4605103044786699 0.4717601949431183 0.3443220479688446
0.3976780379640471 0.4877499612162894 0.3877842277307394
0.4190636126545572 0.5370468396688521 0.330532088000158
0.3577224271948035 0.5543750207590077 0.3763832127436508
0.380996292576343 0.6050744826506635 0.3211272240381658
0.3382581563745104 0.5065568259534829 0.4355431226550279
0.7607410396242211 0.7559825470424983 0.06020713317665849
0.6856537137820902 0.7687577344941294 0.07928645769451159
0.7299935353280935 0.8278361486290589 0.05265839460282173
0.3402023886346724 0.2560883481108127 0.893874761625197
0.2856115100696192 0.306520331219549 0.9065385938306827
0.2661096727869362 0.3210337619025616 0.9797556144347447
0.6456148427228356 0.2087983322764431 0.501591451424535
0.3098436272022276 0.2953789128503207 0.8350960745445208
0.2561176470186207 0.3493366925971271 0.8474342590145446
0.3724761169916574 0.2423213059322213 0.8207326777968795
0.4257305987712278 0.3808372059944063 0.4644142558548312
0.4331231170255133 0.2049244797617292 1.215651377614364
0.373987939346046 0.2546861024324214 1.229381982745845
0.284637789715847 0.3414924860542884 0.7662805909334665
0.2293256321356675 0.3980179527706946 0.7910056614869059
0.3003155766850575 0.5746315367475314 0.4259761518537145
0.641550812529796 0.7105455417872419 0.1124582845732212
0.6125243503578237 0.7831593928971473 0.103985060366938
0.282777863784104 0.5281530635555591 0.4872106905463977
0.2471974030260086 0.5976913549572693 0.4790047945392429
0.5777370355990434 0.2190941712253305 0.5396956707991301
0.6339515371058355 0.1741457853351122 0.5710788663016697
0.5253760160669404 0.4586123860020445 0.3060032238654768
0.7666524076644476 0.3426871228856545 0.2834187535730075
0.4226553988261847 0.2348011667574669 1.284857783990037
0.3652164400798984 0.2869123969244561 1.297583437703005
0.3185159585471478 0.3089803143466771 1.240979864894704
0.3126637581413028 0.3436486165366993 1.311081584240169
0.2675059539959808 0.3676343546182848 1.252123309334199
0.263823932759226 0.4043434809257308 1.321306877153652
0.6154440270894181 0.666149061980985 1.86061620649545
0.2208189915081561 0.430180260742517 1.26111763777686
0.2195791673326278 0.4687748252790302 1.329762244172132
0.1789419689275815 0.4962060815805862 1.268431364365449
0.1801045417836844 0.5363732347312957 1.335889356965558
0.1420005038082692 0.565297910442826 1.27362557970585
0.1457532640940106 0.6068518250839577 1.340142656475408
0.1102924420448781 0.6370544636041107 1.276931397511791
0.1167373663886395 0.6797755695651125 1.342495889345515
0.6596877231843458 0.7195080741920308 1.897503110749529
0.5876652782994933 0.7385861695151877 1.872721540075311
0.6330708449783883 0.7927817284221882 1.906875726392228
0.5622513594859783 0.8125832569833107 1.879346969156738
0.6088991173436966 0.8673880188987276 1.910743741155467
0.1547058984173001 0.6506682835001494 1.404283605500847
0.1285326309477596 0.7246315108475759 1.40585319988769
0.5393591372262854 0.8876835798036146 1.880451598497815
0.5873217394701965 0.9428664407564955 1.909083279845287
0.1092376390001392 0.5967318875805978 1.209564419049718
0.08027811092195947 0.6696712543358695 1.212119227178214
0.4940982344836174 0.8333415197200836 1.846338203437725
0.4726980761666064 0.9088724995837305 1.844777165759992
0.08201817506082287 0.6304811409585063 1.144101290396757
0.05640749918500654 0.7019585380576903 1.144237579600454
1.306471199254946 1.141779542240613 0.05873809944878916
0.06062138000597861 0.6659113183965018 1.07715284260845
0.03795094497534302 0.7382676531384431 1.077186749721091
0.04502453971678066 0.7034878304370933 1.010119464311486
0.02472388425495375 0.7793162091613981 1.011625941611729
0.02145572677497787 0.8156675716001369 1.092047059587597
0.01050719717135384 0.8565954719024023 1.018415604019828
0.008829467490816034 0.8956230839649835 1.081770623603344
0.002276991914081483 0.9350967050501759 1.018340159231649
0.003798343558462203 0.9739086256465471 1.08307526640032
0.000216391047141884 1.013697640882201 1.015655986186143
0.004838749649977214 1.05242664790767 1.083099533036862
0.004371159954733139 1.09212548771404 1.015365786135654
0.01207602408247133 1.130670207309274 1.083255718896984
0.01466841744690839 1.169965275276003 1.01527997459987
0.0252141829384307 1.207320204271735 1.08252844210534
0.03100643847800788 1.246636736266416 1.014892885978748
0.04479270604195074 1.284138824735928 1.082729401345753
0.05337703107962977 1.322017960780124 1.014470233149286
0.07026839728173429 1.359120737126253 1.081433672843741
0.08159176467844764 1.395404024704481 1.013489645697725
0.1011511814957669 1.430761554522279 1.080717313007145
0.1154027734892736 1.466191395717474 1.01238262526787
0.1376842401474996 1.500059800163315 1.079697719983888
0.1546740570375418 1.534138476630879 1.01096074527917
0.1794322140844383 1.56649105676957 1.07587088583725
0.1991546799736725 1.598805578208121 1.008868646952433
0.2264035849524065 1.629392096648041 1.073581079786137
0.248575313750914 1.659784346321257 1.006749610721658
0.2783312612520198 1.688326074842347 1.073494531810383
0.302647851938016 1.716708494342412 1.005377334913232
0.3346100359594689 1.743052652261069 1.071616700021236
0.3609782685200975 1.769182112616103 1.00317873054148
0.3949397800000217 1.793214491875134 1.068650564839998
0.4232356273165572 1.816910546798296 0.999869873969764
0.4590347168290976 1.838476540092216 1.065678414405439
0.4890828937820504 1.85962406219525 0.9968090332477921
0.5265272789560995 1.878536444289242 1.06322419222814
0.5580615632085071 1.897023790593869 0.9937760788165757
0.5969178884301272 1.913186047397412 1.060133635937497
0.6297602660893979 1.928889966015621 0.9907279738295344
0.6698018422169201 1.942202736928023 1.056773049257575
0.7037249190782685 1.955018599941499 0.9873291598305214
0.7447341809624305 1.965402245344439 1.053271627673595
0.7794996695836556 1.975248207600411 0.9835519649055509
0.4517927336108524 1.83207544053937 0.9156243261991284
0.1767275091172809 1.56482484042541 0.9434729675803424
0.8212523872795406 1.982641374446862 1.049650983594679
0.8566384475326829 1.989466950275796 0.9799346172207962
0.8154516463940378 1.979041048948057 0.9138575037741754
0.8930923688566621 1.990218948648736 0.9103496115997654
0.9346658482532055 1.997589229818223 0.9766081816394695
0.9713853273448663 1.995272181598297 0.9071857497718947
0.5035512167452743 1.858091420983981 1.131216305536293
0.8523358884159895 1.976770598552201 0.844711533093794
1.013111544284844 1.999566053838806 0.9736221414898139
1.049847261157115 1.994169556883187 0.9043854471232461
1.091472732976134 1.995384797762656 0.9709854604573463
1.127993866595627 1.986917880418441 0.9019659884311938
1.169276063079696 1.985072550646354 0.9687320542515974
1.205350843901297 1.97356578306537 0.899996515294025
0.04248715611001019 1.283784268002806 0.9486614859991467
0.7871526510858461 1.969787065298891 1.119201736728877
0.2596314673314359 1.657667364717906 1.139025440906339
1.163546013876483 1.972380825529127 0.8334820385411619
1.240262248725343 1.956079428793035 0.8321126041770129
1.197905241432943 1.951862896655868 0.7659262052615287
1.280508394816744 1.954459503007783 0.8984022758351915
1.274008200664363 1.932557728973873 0.7649349279459602
1.23332031699609 1.92547389393616 0.7015712793320884
1.306183056762545 1.903317279691784 0.6995506232960707
1.266392933849916 1.893410449906709 0.6382644988498818
0.09243530421092705 1.392538038440821 1.149131523610267
1.33665144540466 1.868480019762821 0.6361205425147994
1.293861496302508 1.856252329481902 0.5751737187418037
1.365225301467751 1.828260981023782 0.5750362056818107
1.409044040040663 1.838251721586938 0.6394212644043651
1.319724865416835 1.813551797231442 0.5142948593481051
1.244889498629244 1.838083829515604 0.5125119199759061
1.271761482858483 1.793192916023609 0.455031473932189
1.196211165960259 1.814741383064006 0.4543832324099033
1.132347926279644 1.990481745998164 1.037814511155208
1.436422646836391 1.79546006634293 0.5795495794008296
1.47893622790899 1.80292882558344 0.6451403226013062
1.222327900285625 1.767381357151848 0.3985881964490774
1.146464897897321 1.787453455375226 0.4012804585604839
1.296467399620698 1.743224609990458 0.4002298272949277
0.002196515700825796 0.9642175963777699 0.9442521183232642
1.504901783759888 1.757669717413254 0.5864654934941913
1.545820437217741 1.762949263980964 0.6536064796992594
1.171861939560977 1.737203298404538 0.3465516313037358
1.095507532051783 1.754921764925711 0.3511768806810075
0.02585800144544514 1.168229925606751 1.150817965715244
1.570240027026332 1.715123193915921 0.595741259710443
1.609522825149606 1.718051111771494 0.6640170740865476
1.120491832117674 1.702368195830243 0.2984583862099874
1.043803983688145 1.717837025610239 0.3051682105170391
1.068534658248046 1.663091067949549 0.2546053151354307
0.9916733912534346 1.676428141757548 0.26353843506588
0.9668879498243057 1.729021754838419 0.3163108359016694
0.9148213267654421 1.685443260399605 0.2768733648946683
0.8902075789936783 1.736234692219099 0.3322394873439884
0.8384795387034742 1.690908859356854 0.2953326397194423
0.8634365399446741 1.63754727894596 0.2417890211251753
0.7875282419043689 1.64013532086159 0.2617029574776959
0.8127489854862961 1.587189129652897 0.2125065183882077
0.7373170808916191 1.587439829438135 0.234551026652727
0.7129693549926984 1.638937831831408 0.2862970814958985
0.6636652303532662 1.58364879283399 0.2609242194807725
0.689398840607768 1.529415825848838 0.2105408160487371
0.6166754045950893 1.524492212238239 0.2397565035732964
0.5924444284075134 1.57672140770501 0.2919810214699937
0.5466644445718527 1.515798516881517 0.2730620630566318
0.5233900580464108 1.566820744451233 0.3280199356448538
0.479045642708631 1.504226600731399 0.3112605044474398
0.503824052759513 1.45162974762869 0.2584880308202357
0.4377754076698008 1.438582264077161 0.2988943692879849
1.63203407848624 1.668083112862621 0.6073196236888836
1.669186616383698 1.669149545345759 0.6768465404540722
1.644892829225726 1.716399613051077 0.7337579424029622
1.702741416922162 1.665081741003452 0.7473722526600654
1.676164573848063 1.71062692859102 0.8055499101718875
1.73193842423042 1.65731585727627 0.8205508236066487
1.703156118046811 1.700665111592642 0.8790046486421486
1.756654235531258 1.64511429195889 0.8936895199757482
1.725634822514531 1.686437710201655 0.9524881660276773
1.776745430182814 1.628984962020691 0.9676819827040052
1.743527973081974 1.668170483424304 1.026727482581469
0.4641876838729828 1.384611179556595 0.2483488824948862
0.3998340920934365 1.370292921989149 0.2909978597271878
0.3752162126450025 1.423015335766854 0.3437201475251574
0.3391658672359907 1.35350135379796 0.3379312408540566
0.3651489155872398 1.299932317034234 0.2879573707856963
0.3066420345300819 1.282015538884711 0.3368846498934127
0.2822718374441127 1.334863427137883 0.3894815565114993
0.2526594679331507 1.262129237731733 0.38945074575738
0.2793575099286493 1.20843054595537 0.3387654659528818
0.2272217103712194 1.187971628948101 0.393798398394549
1.144930704119931 1.645514361623983 0.2501291444918781
1.792397437414153 1.608575151948052 1.041744288362468
1.756703067855314 1.645930110035464 1.100870015603889
1.706136514092238 1.702797494785679 1.086295450567431
1.71643552441671 1.679173347324451 1.159510826083543
1.663768013474705 1.733851464069242 1.144478555402778
1.671843357180852 1.708099671030322 1.217304761334659
1.616762632287409 1.761045405804173 1.201031703266595
1.62320180982787 1.732530534374948 1.273895090199915
1.565967591843584 1.783359112616938 1.256961447814215
1.570875561501966 1.752357898609791 1.328722809794626
1.511701679026206 1.800843508302716 1.31114476838147
1.51499466960511 1.767331364071325 1.382077306301701
1.45503271073386 1.813052331882288 1.363168194894554
1.456096981736048 1.777486523450681 1.433001442380786
1.395935244864541 1.819254571014276 1.414797817914067
1.394481601129703 1.782717934412947 1.481390591431194
1.333523274785907 1.821753405870284 1.462042817406215
1.330528846688724 1.782993306246666 1.526946073027911
1.26692301307079 1.82196091329127 1.503122611412558
1.264826318266193 1.778638591516312 1.568848806762453
1.19962091184449 1.81476830019267 1.544338229922831
1.197202479306365 1.769544456236874 1.60738168562323
1.131431989650947 1.802480897693854 1.582022371505477
1.128594853830163 1.756013235091824 1.641800087203479
1.062479550201293 1.78559708418938 1.615575768788691
1.059519623347582 1.735837598795203 1.67453720626506
0.9930439069656762 1.763988937136862 1.645191844881958
0.989085989844167 1.713359703320672 1.700713078271386
0.9232081139217928 1.739030169867302 1.669281266926289
0.919019027851003 1.686087335688875 1.722998098169798
0.8554731850513027 1.70726735539551 1.692015092142236
0.8511955048055911 1.652353069875828 1.743163975468079
0.7871256786168197 1.671677407716295 1.709601284707947
0.7834207599091639 1.614635461675408 1.758496329597404
0.7190302661328023 1.633399430216911 1.721013987694753
0.7171614552528789 1.573038748642125 1.769174200139343
0.6535745731494806 1.590721021931834 1.728723608701711
1.327206600599617 1.738531912097482 1.589496781448109
0.8557560034763911 1.761450664049271 1.631970375639414
1.57028480630356 1.718474066169859 1.398208809471439
0.9143394161123436 1.629667056837988 1.77212800875309
0.6527599338113479 1.52828917382836 1.774812806585596
0.5901596288515705 1.544521146159441 1.731797507212293
0.5917060648529607 1.605863465782562 1.682807090877128
0.5295540847175224 1.557887726894913 1.68369724657487
0.5293665576676967 1.494843604904781 1.730502545952639
0.4700332837309408 1.50724112689065 1.679589375165397
1.68990251639704 1.616839827600704 0.6211291183601391
1.650506592369198 1.614217573430687 0.553258524677714
1.123721987940971 1.703965973543973 1.699374561870977
1.782653290238201 1.600514689049099 0.8361832257808065
0.7177076003962597 1.508185992147416 1.81366946514608
1.120266907986879 1.831835277653115 0.4581642853271471
1.09264400110026 1.604217123172732 0.2085843335357821
0.532457042417801 1.61743354924488 1.632597340400796
0.4715706028235449 1.441995031150913 1.724846718029151
0.4140513953675731 1.452272162391977 1.672394321700144
0.03598043570512044 0.7410721299436527 0.9398116475986082
1.133367455182635 1.846016411157329 1.516206696925351
0.2302064267484426 1.3141710900452 0.4443792833592235
0.2562251647050323 1.13366100617587 0.3450696756066354
0.2059167935291203 1.112906014596156 0.4027696482353407
1.126466073868602 1.141582237849839 0.01818494507076684
1.048568889948065 1.135464518977246 0.01040895970735667
1.706305823972047 1.561073889459908 0.5683425274717251
1.665346248363597 1.55668411535311 0.5025895402165217
1.803265491896057 1.584358838427143 1.115279215303824
1.167058390940251 1.588797263513656 0.2091717781368169
0.4171285079408853 1.386301630975325 1.714864933851553
0.3614136226882269 1.395284245362532 1.66027100805654
0.360071605253 1.460310080674503 1.61530990502832
0.3090029611541755 1.402205212141838 1.60062805431668
0.3124891626451508 1.335999467467188 1.643764868862382
0.2630764396159428 1.34096157050587 1.583685594810302
0.2682257567600248 1.274172069972646 1.62396805445269
0.4290321428853886 0.854928386940577 1.80805317475169
1.836327322329224 1.545316666754505 1.056447700443737
0.4710976277501699 1.374315306532395 1.761676001935246
0.2205225670481132 1.278616950379663 1.56105928962978
0.2279923624521578 1.211150307392953 1.599516267715615
1.844750913706378 1.519288682683493 1.129364438038752
0.237807159210722 1.058014638892229 0.35525479829333
0.190160445574596 1.03671113363968 0.414498344361903
0.1615122704694206 1.091255825626635 0.4627749989847317
0.1480400666094105 1.015148240707787 0.4766121870920559
0.2899266178784217 1.078674172130644 0.300281366089211
0.1217477707932855 1.069444138421989 0.5268715464778471
0.1109465170913383 0.9932059671893341 0.5422470692107526
0.2631300703934613 1.404391887414292 1.54174708881097
0.1693255847154612 0.696494462972806 1.466759472089774
0.1456054298419407 0.7713454156361048 1.466612258233535
1.718497986307443 1.501768214406507 0.5183473215236363
1.674872095846486 1.495697774236299 0.4533452910063326
1.165255668166131 1.939357313792657 0.6995030762832853
0.1837594346779942 1.214013041425794 1.536609501986774
1.080704507569118 1.209595439308557 0.02554808518886931
1.003129779352979 1.198784321687778 0.01996173649579802
1.875301243614574 1.478441050072084 1.070298609749421
1.441213314335892 1.850608375375952 1.286000354882684
1.607418339890413 1.783753656256338 1.129511260782978
1.880926983828267 1.450970079848276 1.14350483004022
1.84886601905429 1.487926149509204 1.203358192163592
0.2737813681685134 1.002816796619625 0.3125419544164113
0.3281180487842615 1.023350531230236 0.2597099242041686
0.01325869197881491 0.9310559247513324 1.146929593794942
1.619121388882939 1.548942380133917 0.4384388108847157
1.627180559155728 1.486390207139563 0.3916669394025659
0.2780490648704812 1.205697834117247 1.660662734157972
0.2410448664977184 1.141566483186989 1.635567491434703
0.2638233883518724 0.4446281643527469 1.386789504294109
1.569505920285408 1.538036557171568 0.3785664396680563
1.576158353648886 1.474786917138657 0.3347038743276983
0.08738243320965577 1.047405151151832 0.5939434418335993
0.07922767037845058 0.9711268074328534 0.6109695953343939
1.035731945045545 1.271829005594036 0.03831802563372344
0.9575001891721433 1.260758856769199 0.03553196802796155
0.9250363692931255 1.190711642635613 0.02122039077508897
0.8795881126134821 1.251989224763303 0.03979043538443849
0.8474258966775031 1.181258610924205 0.02847210078085582
0.8023990521197726 1.241867382182968 0.05002419250130696
0.7707774058101835 1.170483583653873 0.04167210725272963
0.1889996456804141 0.7440298699973897 1.526077672820234
1.726403747683718 1.439288864761873 0.4714520942740632
1.767799125264109 1.443906583347592 0.5380135840694705
0.5446517523368613 0.6861460749749042 1.833158860660109
0.2152540744309457 0.6700425869195992 1.524692231556803
0.1009482750170909 1.123462940674546 0.579925128000675
1.648487241242887 1.748835205650971 0.86321501280163
0.1795068766661695 0.9606078992397241 0.4297024487518925
1.117957597592759 1.273276527350661 0.04532416770439407
1.908823864475993 1.408705528120007 1.0836598747493
1.900472153956084 1.43479697085528 1.01007442726729
1.516275215694519 1.523987170102438 0.3225803758174578
1.520801322878472 1.45831312121586 0.2797812380884475
1.578551147645038 1.406789841249175 0.2930342337743079
1.521937635692398 1.389864528433659 0.2413256601696419
1.910385005153691 1.384328511999228 1.153266882449452
0.0693796339807522 1.101160182193702 0.6482723327789832
0.0857699634818393 1.176871218191908 0.6354454601800806
0.105720168222564 0.9169601987707539 0.5602637450835692
0.07693780345223022 0.895031315861115 0.6299489810113237
0.07523184050853071 0.6194957161400521 1.004510116959527
0.3134868185836627 0.9473096090062088 0.2747942537193045
0.7264094541079394 1.230455803521038 0.06617007125389429
0.6955640067334348 1.158453069857182 0.06073893370552463
0.266932492508427 0.6434898493124701 0.4207655553086925
0.9900353211870004 1.329280241355477 0.05582034133908997
0.1678503817836998 0.8196289438942543 1.524398031100198
0.1286538464959948 0.8480979898879883 1.466563672072424
1.462578121752204 1.440078465953003 0.2303556502639319
0.3705637220761256 0.968031566821677 0.2236057758371317
0.3865595676556879 1.043942640727051 0.2114824794012775
0.7022943236927282 0.1662162581691152 0.535052688842146
0.6915636478761564 0.1337592880772421 0.6069426941321532
0.6241208732185741 0.1443257793643236 0.6442802926606954
0.8142688505286512 1.738289631754008 0.3515924431651165
0.8664906977029159 1.781786546588343 0.3909145693963632
0.7910268343314439 1.782346464217871 0.4132596605343566
0.8437844022851848 1.822959340570791 0.4537998436489679
0.7688913116854554 1.820571660761807 0.4772659148858369
0.8222397598113904 1.85911759037923 0.5200851503557391
0.7478924954257784 1.854256621032321 0.5453711056699091
0.6953752122907617 1.813005755009296 0.5037889752989491
0.6753210487442294 1.843997458457558 0.5730903272018362
0.6236898797975898 1.800308323616739 0.5332053121735285
0.6047178418491117 1.828761691661129 0.603886286676969
0.5542777895541632 1.782557741060219 0.5653333541413545
0.2750863542528029 1.686064505345459 0.9382286416322468
0.9960339888977372 1.812235734143018 1.583315851779368
1.273087297639237 1.861465263270405 1.428136576394204
0.5921318715329165 1.910309155273341 0.9294249930478555
0.09858286025493501 1.429585442527528 0.9461159787854135
0.6380544958332065 1.923728969975518 1.125380389381329
1.209690124589117 1.97712027693284 1.035581119382198
1.172233979371371 1.979492060429782 1.104550274532983
0.5959610629201377 1.663520869228624 1.629676578428534
0.53812600081191 1.674171166936887 1.576338135598328
0.6028983592180543 1.717137468078351 1.572733916200584
0.5461643327255596 1.724876353130756 1.518254242415264
0.6132942747715618 1.767740142348516 1.510914626823531
0.4828935354207923 1.678402394460935 1.521891842703125
0.4926555626646779 1.727707037845673 1.461566992943366
0.4308096299347181 1.679354825257374 1.463140738895285
0.1748180271198445 1.280747911965693 1.490158465764407
0.1436854965822671 1.216000617234018 1.469115342523525
0.1488007129724613 1.138346082582862 1.506280688154097
0.1141311465363453 1.149732339625401 1.439108871389879
1.765042561451785 0.3749468200329341 1.154978712668389
1.458762412694372 1.739873192943221 1.49206169030198
0.2624242916320024 1.385775999534484 0.4457807720688354
0.2128541029854937 1.363922647330394 0.5020425283487895
0.2474301857390968 1.434355405067559 0.5050514605012897
0.1999924773343984 1.411389048692591 0.563254062074698
0.2369652931436973 1.480516220137344 0.5677012626462625
0.1919404725802973 1.456173018442329 0.6272454193554945
0.231338606211353 1.523854210992745 0.6329353908042032
0.2787279252048055 1.546646953489881 0.5746252212920153
0.2754012672050068 1.588332398307121 0.6410826480454288
1.677586812592416 1.673108245528254 1.296313012206223
0.3738275056278598 1.767420181587396 1.137747131310023
0.169451097922804 1.538954426570206 1.140415979641723
0.8641717437529977 1.984004859495187 1.115261100527265
0.8307137261775134 1.968141792673653 1.184509150921962
1.447853627721649 1.843391849622044 0.7031543900818729
0.8544009668503626 0.01725508116434671 1.114076053791303
0.5611900788148821 0.1207655309023526 1.185452423602629
0.5318294221544905 1.396367747529063 0.2102475585612044
0.496867762938797 1.327954333545245 0.2004351763998846
1.742830155419057 0.5425479390695349 0.511184112215479
1.642459094501746 0.598082723371997 1.652463650052573
1.718058888051445 0.3820718275215234 0.6797560196541814
1.768727764075552 0.4414168018883087 0.6884836512689632
0.2373915088888324 0.7184824976216141 1.582388345642136
0.2660346080077455 0.6454391560195584 1.579293890243573
0.2928541348435827 1.135885715088825 1.69388745328546
0.2581560566519328 1.071178621004661 1.666784198695249
0.2321038082466644 0.5526408646409864 0.541518547047364
0.8989174434943158 0.3795393078175101 1.777695857148989
0.7262560507594551 0.6958851840775473 1.912457357354656
0.1129508009998915 0.5608128143584107 1.142331776218405
1.951807880611743 0.731601902858341 0.8515944075982362
0.6636821098803007 1.875693918411105 0.6535170450898946
1.915213979878964 0.7322482641054273 0.6988482459630198
0.9083072916867092 1.979353369024403 1.180164996108359
0.8751485269399313 1.960476582859823 1.248790762394124
0.9519061358863182 1.968827209256413 1.243024317382118
0.7980090255498653 1.946287774198303 1.252466026711531
0.8429483770868715 1.935679068395388 1.315973841808293
1.766637801868768 1.207768785309336 1.607534865334415
0.9719197597314374 0.1384071527630663 0.4931772837602744
1.773398266974917 1.380063833842109 0.4926474570425091
1.812660714335204 1.38379672790616 0.5614995609754525
0.5365542425439662 1.80862781833742 0.6375926583154421
1.890842164381893 1.201238082524683 1.407312499564123
1.860198185100998 1.268688843245444 1.433434410106505
0.1986957763850925 0.6234121394252182 0.5351418232572229
0.186024575915569 0.5796335863930584 0.5990809467014468
0.8163936346647482 1.109331823596518 0.02309915807312468
0.6555529498031633 0.9294559584961561 1.936151573100746
0.6376899936348022 0.9985494881929942 1.932056519371625
0.566761077748254 1.018458904757524 1.901090064910993
0.6196998461721187 1.074299081331673 1.921873873971792
0.6904306477176816 1.054093538780808 1.949336981892982
0.6722682187316715 1.130577698436093 1.935703662607891
0.5513692161604804 1.094248691439398 1.888733708122686
0.4309238852719326 0.9886051915845181 0.1777941048696002
0.3586071908354423 0.8922642643798318 0.2403893921077862
0.745218161772647 1.109155748701386 1.960818004324925
0.7291902981112108 1.18433850095057 1.944818195437726
0.6583996628085281 1.204342982724162 1.917362063223712
1.931201741921954 1.363759323544437 1.023290993452654
1.920112662291579 1.388408256712368 0.9496838514156534
0.8351310274602906 1.310477765507868 0.06382598892142832
1.462194625276376 1.370348679788881 0.1942593570234507
1.401407528078913 1.419311550785973 0.1857212886369685
0.1079125778361862 1.213030596813899 1.398494662496545
0.009925354416643439 1.131031562396014 0.9491775066623992
1.095193228033846 0.5354883538410751 0.1195642102235837
1.577988622158471 1.337111443151405 0.2568411828204353
1.248998806621278 1.963115586755132 1.10201941408623
1.299188421276519 0.3392397529550814 1.688391011343991
0.2058961421142637 0.4075889485618639 0.8641758157581929
1.864105307890485 0.4968618124040775 1.013190187950946
1.924793831808768 0.6663504625273662 0.8171493648007927
0.4487451964369248 1.064466020994023 0.1681573023186214
0.4931093971131016 1.008728474839632 0.1380337997160617
1.102376924865732 1.196930614718764 1.975057587141152
0.7150298855188456 1.258436540577474 1.923039862815765
1.139246002174745 1.267813683570225 1.953355328180893
1.058768522601071 1.264818210723533 1.962505883629016
1.093530328480783 1.328015332564784 1.940030860800161
1.015321682867664 1.324184692119655 1.945869722228906
0.6417005457088933 1.279154635077024 1.890895162614383
1.171800088300094 1.331475532727471 1.927689981008267
1.127172951877305 1.392679260725201 1.910840292536031
1.204329123600973 1.393571557068717 1.896298520982247
1.15984318629581 1.455013819005001 1.876020878923149
1.23643717088008 1.454596146334343 1.858743155992633
1.082136259282122 1.454205312542369 1.887102682314414
0.1826446540931513 0.4568720185268715 0.8077963729311524
0.6943749360976397 0.1531891670041506 1.435321413940957
0.7694382571435261 0.1391158950510839 1.453563491230598
0.9152576969782386 0.3573889151931866 0.2385082168782262
0.7663631342455018 1.918585043978045 1.318771598390237
1.11449883065426 1.515180689135412 1.849399126041915
0.8119055964894594 1.905113887470474 1.381299549011142
1.014678170688714 0.1888232231809155 1.584616787352736
1.398900636713316 1.501323154359323 0.2321762071067808
1.210880207974345 1.962483108598573 1.17075070584664
0.5699460126494109 0.7258685098201962 0.139822405514036
0.8890267863591935 1.919460374037001 1.377196986241897
0.3695196890010709 0.3200387046613431 1.374362410351346
0.3250225950500629 1.609373058981801 0.5839832001057992
0.3225216186298188 1.648522040780997 0.6529521569044262
1.749095526927281 0.3393337596897847 0.9512556623605917
0.290482322289134 0.6948609888213443 1.635196700930265
0.2624176640014316 0.7659404438533669 1.633394365146499
1.220475888523801 1.624109314599208 0.2504148173755384
1.804375941644697 1.445975190185091 0.6074627734308777
1.846495435647119 1.384197854182856 0.6314386261829892
1.15994011744796 0.2635178799735554 0.3427228547164549
1.177965342675871 0.3187533803358618 0.2899074848990134
0.09393507500043097 0.7513299754777328 1.342358833082514
1.061305162546148 0.2287518560795374 1.633575549989448
0.2715362264167275 0.4859297442327748 0.5471509051436247
0.8017143616778785 1.16339624828184 1.966428720435505
0.68365330891427 0.1073238819876455 0.67897956549543
0.4422335174268103 1.726487369643562 1.401388406243019
0.5057236752069587 1.772594724134976 1.398482505246949
0.3821272820870043 1.675964940873772 1.401627567739474
1.856456101850931 0.4918970178065403 1.091182811364977
1.435938857840974 0.2824639107116634 1.54323040488646
1.475814780738892 0.3390463323909022 1.580293497899539
1.115983198121955 1.541578588760278 0.1673893287076914
0.8019897538759421 1.890038110410434 0.5893613456493474
0.8768317499964491 1.892318553992163 0.5657222312938438
1.508387251387709 1.586481304194777 0.369458897091995
0.6168284424150521 0.1204954981761197 0.7177742238394
0.05342621924719659 0.9493820532609043 0.6815099670958893
0.0538877615006077 0.8735492621224872 0.7018694194620392
0.3213537442788073 0.6228360341376685 1.63022742121444
1.44488061328946 0.3724432038292879 1.638947343291405
0.7849401975578352 0.5612120050293101 0.1275239964084176
0.7090597209830497 0.5733359224410213 0.1436638983633325
0.3042234437497316 0.8719328892790732 0.2932512476670999
1.394732417593352 0.6055835274460131 1.829832491939775
0.1551100714511585 0.6516351294591815 0.5940407340510476
0.144999682176701 0.6090432765261705 0.6592254456496711
1.815565581601217 1.318388246025124 0.5168005516347169
1.774096466344684 1.313964291666798 0.450271808662827
0.5585448259340204 0.1602613491871254 0.6838412936176694
0.5515455124660322 0.1388390692394558 0.7606458190415728
0.1519368258739875 0.8963731758223622 1.519663673929754
0.188747789456711 1.497998129004811 0.6936216156509485
0.1518494076109917 1.428843970518665 0.6889800302553537
0.8037926007296987 0.8144750183590566 0.03714843425442138
0.920833565803974 0.8657030860071919 1.987773766906519
1.947900689456784 1.316407826714374 0.9629814894783656
1.933831468659331 1.340189250342872 0.8894103888572192
0.5702635868369215 1.626210498724273 0.3494717327515819
0.5050174824552718 1.613551484723243 0.3847383622238523
0.1680725913123345 0.6981114891728011 0.5344249644742943
0.7503540909506219 0.09964011365030678 0.6435887275249603
0.3094577369793027 1.066987641950262 1.720183336941502
0.3484434059412197 1.12989915542441 1.747395620912076
0.05699902162547221 1.154160632644669 0.7050700860758969
1.411505221367662 0.5414968925940233 1.787679092832998
0.3473000478587065 0.6686320825104952 1.681306154187251
0.7403950348997665 0.1141942697097157 1.384647202355876
0.816216988886342 0.1029493849540312 1.401900483791257
0.08172134236169681 1.149377353683772 1.366675214777914
0.08855901655512255 1.084095145901251 1.402744758045194
1.223485597484196 0.3277311167257027 1.705768188783159
0.6211590789687098 0.1720883736949796 1.413572116542133
0.4061788334251435 1.119636118329408 0.2043470471878154
0.4690087396124434 1.139988353457041 0.1642658662658196
1.399690878156433 1.34836275624631 0.1521258395380753
1.337667115328585 1.396140558813048 0.1461536573311579
1.460581758230847 1.30262777541731 0.1655655367070751
0.7752275943547311 1.962556897438227 0.8484691950310665
1.588792670464641 0.1926561488952977 1.038975598655369
1.597550500540443 0.1991023032084479 0.9613182397265513
1.538063121264652 0.1571458972475011 0.9907783402676092
1.545097354242887 0.1661388123476453 0.9131415281943704
1.472861456587054 0.1205680573777427 0.9452140422187196
0.872036536897776 0.5540986543094211 1.885887883437976
0.6547580732054696 1.461236107306171 1.817355042377699
1.008183591650466 1.98730600195916 0.8413813147100304
1.122320727729732 0.01080177064270715 0.9192256067552012
1.039631838877176 1.559315742038509 0.1719932258398329
1.243945621565057 0.06042758140610138 0.7598038219770146
0.5779940680022621 0.218820017043031 1.460074806510931
1.524226134366151 0.3209403133262667 0.4861275430789335
1.955010318796147 1.294743809931393 1.032884304767013
1.513751406765698 0.3963555239961927 1.609649767191258
1.543794503067327 0.3642209914509118 1.547788819457004
0.3305046608369739 1.565903051611031 0.5188246400569673
1.342010664928086 0.5477209939914898 1.823694364312032
0.4999063971869552 1.038065565082629 1.865134325512754
0.2760246185984332 1.626248030035053 0.7107370538736932
0.3254968596111072 1.684277804925442 0.7228549129211546
0.3725517769385341 1.627270545077402 1.461346280634523
0.3257759729408513 1.62133928584926 1.399198513519873
0.2990866962678927 0.5745437740777444 1.572457457349743
1.903458023778218 1.410659638178093 0.8770273980018524
1.46124419687919 1.748496427261236 0.523547600255349
0.2281375635053885 0.3941610206027102 1.19284063412946
0.7894382854778544 0.2501520485002106 1.627209545534077
0.06042001561616506 1.08248672898869 1.332242972064149
1.412830963402804 1.202798100903379 1.88794342495786
1.369619497144809 1.268364255710659 1.88958532676033
1.440952911909473 1.26735165931599 1.856786799466205
1.397814370067835 1.332932991720072 1.85492651730535
1.467853583366298 1.330993510748784 1.819485399731751
1.423378572521355 1.395550041537114 1.815040335793123
1.492042017738733 1.392488972477124 1.777075967498319
1.446153852707297 1.455829004424873 1.77017313536598
1.513368995592176 1.451458375425295 1.729820258435619
1.465999602635194 1.513397816920679 1.720601867833357
1.531702882111344 1.507537727292919 1.678009956069104
1.577640559448972 1.444387989641646 1.684726732895493
1.594080644025046 1.498728140707142 1.631140578684008
1.638028226089559 1.433852801711633 1.636153856515841
1.652747863685797 1.487023434070738 1.580283035353932
1.695198365322412 1.420828605214596 1.582754251710088
1.707342419616178 1.472495854300593 1.525751242585582
1.607757743676556 1.547633623086094 1.575089505961272
1.482793323317059 1.56790113784449 1.666632510904924
1.41562538032567 1.572092012748132 1.707082931613353
0.2758063096719593 1.002336455249937 1.689592662276738
0.4435350738381082 0.5887899339241137 0.2780214217100998
0.60288892347778 0.6553643038761805 0.1493949036946617
0.4068412172035922 0.6560847253255038 0.272068037357165
1.233852762343551 0.2892836771962335 0.3365279251961069
1.251242258811447 0.3466679681644388 0.2858329442175737
1.306850341932535 0.3187333263104579 0.3353808707418411
1.323172010965675 0.3782274687754925 0.2865865359112779
1.377076646987757 0.3533934397554308 0.3368912920605275
1.392524756317714 0.4147942962598353 0.2904518339198545
1.632848020813595 0.670441905278309 0.2993611167257954
1.583685074292447 0.6101489291316602 0.2877304747561993
1.337587973892074 0.441379855840396 0.2423867118228801
1.407787309010685 0.4692736159980465 0.2570067187827098
1.602801214389153 0.210611677667913 0.8838243894068341
1.937364396779779 0.668226861261938 0.8938182121944869
1.89302428797019 1.2660029781042 1.362973878860493
1.859555346723378 1.33221031655288 1.388330930386813
1.412334427493116 0.798432006240445 0.1115459135128748
1.82167644177118 0.7316483997962946 0.4971727496382441
1.834983558747417 1.446621471294738 0.6785474871773094
1.573492888178467 0.6766785570499841 0.2472921205823337
0.8823842665345539 0.9340943908692491 1.990869814822558
0.8584607608621184 1.886178623179488 1.441196205337236
0.842865863527624 0.8673577000459725 1.978629083676746
0.8816800735872163 0.7993783550871623 1.972497481028173
0.5418043378886785 0.7990986284986683 0.1341504898937392
1.286922923128568 1.94312863020212 1.167879787575605
1.324202021589237 1.940812981387278 1.098812869863359
1.121516801993197 0.3518692822725483 0.2482285988603687
0.6520883618309493 1.217824926228814 0.0881284117048392
0.6838932299006372 1.289135643322151 0.0964087817724022
0.9438173607325095 0.5399822983987592 0.1138695213127748
0.7449954900032802 0.07568139989192524 0.7160848271479989
0.1607728837013638 0.4692499325561292 0.881669052326105
0.1420246964702089 0.5162741594071655 0.8271194352284834
0.7758360141163647 0.8881072994801855 0.03189332664052746
0.7007253860133719 0.9006785242786398 0.05101635952789685
0.07588423433951352 1.227594474012723 0.6930622097938988
1.958798455096846 1.266976534456975 0.9028966913372879
1.941813963752375 1.289809572078788 0.8297153277228098
0.4569256816104826 1.769060904153169 1.337069147815209
0.5194752156798444 1.810677890012443 1.334510523450371
0.7878601866699411 0.08091197750407675 1.332075151893093
0.8642913721859143 0.07233848434521661 1.347889753671889
0.8570775513229898 1.92048762774561 0.6363027346385097
0.9323303149834919 1.919969619748789 0.6138954643247059
1.548565118838614 0.1801524459486225 0.8359076524954578
0.3788748100752343 1.626814868668842 0.5295676256287343
0.7359713854837531 1.885204596200599 1.383016597005881
0.07971531234637874 1.216589537813887 1.325829811066826
0.1127627093644051 1.285404575537215 1.362428225126068
1.892504042086091 0.5529884991959488 1.060143603225101
0.3374188686468103 1.668478883863932 1.337819813218169
0.2830744236870657 1.611944498717258 1.333978515054563
0.2736359294690024 1.562818559412208 1.394500324743602
0.2331624044966898 1.551610275852643 1.328155764380992
1.248048069518336 1.939559877698189 1.236007185119417
1.171296901041563 1.955978148544659 1.238250186146167
0.4395976797808149 0.1747447727181339 0.9299782224096711
1.907536321445798 0.6041413912864553 0.8597367219689829
1.892094639719871 0.6032332292932 0.7837980493936954
0.9858046771796346 0.232620744260824 1.641036325547323
0.2260289843684566 1.500763978814567 1.387562000825779
0.1879340249226258 1.487931131954266 1.320112577996339
0.07059549748611571 1.015592098611003 1.368733178826945
0.452094678308928 0.7798786287215748 1.807060307764611
1.070094055010717 0.7258325324531898 0.04087590834599342
0.7208032321341731 1.439421956232303 1.853790084970686
0.7851839572397659 1.484031587403579 1.848273240276036
0.7884769100199611 1.414720780706221 1.885022404493648
0.8529468529844488 1.459031874473988 1.876165001680459
1.036637462034363 1.510053087799181 1.859362289143643
0.8466963676621457 0.1298262428169846 1.468290111599652
1.068700606368019 1.569405769334912 1.81918086924243
1.139860671262494 1.567083035987788 1.811699342693388
0.9351369788301946 1.899814692556578 1.431423582507999
0.3565354758873434 0.5531796670256268 1.621534388629577
0.3363437607456569 0.5062339512006946 1.561921244616987
1.381382469933875 1.135811621846427 0.0856135308314212
0.1167093195484068 0.6821861195847128 0.6553379753399875
1.578651371305187 0.4279845806203383 1.581344089570485
1.607384320632048 0.3953608882567081 1.515262876210414
1.546113437021587 0.4618796703294816 1.642017620240879
1.752824244571419 0.3909963485554624 0.7502597162797087
1.880943447798174 0.5471857493879465 1.137469619276809
0.691197175666825 1.89589122007761 1.319405287169303
1.264384232588862 0.3824815995850018 1.740791470460683
0.5845241723577981 0.8564840128453655 0.1017890013610064
0.7443614832075017 0.5075706836770377 0.1680370698415514
0.9861930063096103 0.05367491165500549 0.6770786564903585
0.9196884804355874 1.820392349272303 0.4338671065193909
1.076379849690223 0.11537400581639 1.460003227136461
1.446387545817769 0.1831624297502739 1.365396418656934
1.632783555679894 1.353493532859861 0.3110680048891873
1.630385108286906 1.282144826783574 0.2768064491649744
0.4236292802212283 1.31787760912782 1.752828412718915
0.5886596799475969 1.223761156344018 1.883589319769527
0.1830344719284583 1.291286133801751 0.5022855093553978
0.1512183653512208 1.469238303338546 0.7563093121128568
0.118155444658433 1.400912405474813 0.7517674007088663
1.87192294197791 0.5415577244351164 0.8280085373413026
0.9807976158122046 1.256687429102289 1.966303695626981
1.335892497900414 1.326731662540343 0.1165846670179174
1.277989753964457 1.376170116399857 0.1161347725934128
1.263748082370162 1.295768222843582 0.08187249937603358
0.05046736347566871 1.206015370447682 0.7634721172579088
0.03413932135464459 1.130692213109155 0.7763201062246212
0.9837509860817529 1.984505194472394 1.174600949606693
0.6702638046638079 1.756645677345525 1.564589550416535
1.02985398503201 0.2753085683215877 1.688426516361479
0.0332979403784861 0.9281733426656136 0.7543822905006816
0.03695153631640191 0.8516527029397566 0.7752095730428422
0.2106859590240789 0.4463121949054787 0.7346452201148934
0.6458242257853091 1.768608585582711 0.4672708351066477
1.824582775694141 1.333885741385207 1.456709489422102
1.822080872210933 1.395875710547927 1.409225440732959
1.273664472458626 1.441622811334192 0.1455545371276021
1.206905712588233 1.414936758713523 0.1139878599213944
1.060377033722496 1.49763878442243 0.1347195517998577
0.9862214332722536 1.511087370514332 0.1405816788084661
1.068149841899116 1.3357213535005 0.06050717307000286
1.522976489101886 0.6172224606481799 0.2384378244592037
0.3709705671120147 1.058829050964993 1.775152317498424
0.8523552295832695 0.8764318074246095 0.01870905254749133
0.8829138425941468 0.8045031881204426 0.02631019914509691
0.4783680027183826 1.112728134654377 1.845690503121169
0.4883407150119019 1.762508936544843 0.6040392724338416
0.4735191952435923 1.784183398774196 0.6715576773465458
0.5219680069699513 1.829611024709832 0.7115022334235106
0.4477482259829066 1.794227740840957 0.7465828068704844
0.6693247671498903 0.5211134170477718 0.1867832201387724
0.1089673883518743 0.641304552849095 0.72179421074907
0.6217151900273237 1.146689085513789 0.0860071582692431
1.570189725295248 0.3345925917875084 1.481784867200771
1.632146614777922 0.3670760036476626 1.446987552697165
1.667653229291442 0.4294022621903361 1.478181332784126
1.69041931845451 0.4029616628552182 1.40849282574386
1.723650963996984 0.4673100753444348 1.43882881226816
1.744412906539842 0.4423934525108831 1.367320517769116
0.7144229084022324 0.09484125656043374 1.314854528202257
1.534881575511587 1.325527635581082 1.779700877677609
0.9370042290233814 1.318553803601307 1.945809181098493
0.6667786956831818 1.085400654304872 0.0610270022020345
1.813856213936515 1.253712162242502 0.4772493885540107
1.854437922490146 1.254179610144426 0.5468680518904565
1.770850440632503 1.250313030005228 0.4142244583577444
0.9124122270022201 1.946402053323114 0.6891116993402882
1.677925867311903 1.366236669752727 1.637406636424376
1.444853774799194 0.3887031906562697 0.3454609790600084
0.4984559863392072 1.730560051665419 0.5366042584662192
1.243673476082956 1.564392898515819 0.2112770491747047
1.294703911302908 1.59900804881932 0.25546057047834
1.364429177715778 0.5139628859387604 0.2056705354927189
1.280185701413451 0.4785781758911609 0.1940128697885659
0.1832489899361698 1.435558573906432 1.378426368341727
0.1479678078737723 1.417409785923011 1.315927545801694
0.3890035193513306 0.8023800559084936 1.766570060941731
0.6465395858999148 1.855607888924857 1.378154566379602
0.6117189004899433 0.1016838761574039 0.7944132071175892
0.2193458586350957 0.9964520643548328 1.624953217227083
0.4945008890936904 0.1813199750029647 0.7275414425205473
1.361170434663476 1.917955749655734 1.164052305070594
1.397415989419136 1.91273819982043 1.094707496760126
0.08290108861746159 1.281712081096381 1.282077808601295
0.9251407742812334 0.2004582814324943 1.595927123560345
1.732481555643385 1.35189555002133 1.582786661238426
1.51109166951121 0.6848421023844313 0.2003370679300071
1.295987135408644 1.267917477943994 1.916848864690749
0.9155870938343081 0.05091084712236649 0.6965131944174869
0.8869536205216415 0.03415466982883386 0.7668405818471276
0.5082983425846446 1.844305412255576 0.7869792241800472
1.457903527788065 1.5701354492674 0.3178930225192648
1.444201805429252 1.631425424607928 0.3644005276810787
0.8184416312701344 1.087792754105616 1.979453414446395
0.04544777038495817 1.014311452812799 1.29769988789944
0.05822789862371014 0.9473698623650052 1.33210747911152
1.853725487598273 1.393984521488049 1.340483463112268
1.812306712374688 1.457000569951907 1.362364849419281
1.531460307913633 0.5518855491865531 0.2811513510588549
1.775378283521834 0.5084249693023062 1.396412041488771
1.79671035932171 0.489557015026969 1.32357466285433
0.9883558251564654 1.942368869189541 0.6656269634455562
1.007944377252122 1.913697983884584 0.5936837671033539
0.3958103590378648 0.4863218391116096 1.609171260632318
0.3775758334405398 0.4409313275149637 1.54775028647056
1.87543077374788 1.382423793824054 0.7044107540988582
0.5503035510159977 0.1960485941949378 1.389146811467398
0.5070298549889956 0.2438956383402054 1.430449335470348
0.3480527652347087 0.8095009737090428 0.2660552309171437
0.3465539366557892 0.6729305591235313 0.3173333001056022
1.432302564044541 1.629222665362106 1.645905047599972
1.366927307067268 1.634714271285385 1.680075102584285
1.347529259254871 1.574966723064609 1.740700129154914
1.297187919956332 1.63122842152794 1.716400739870761
0.2536488664553809 0.9261153413932425 1.661438615957086
0.3665640946274962 0.8820695667482379 1.764755756237224
0.9716018622363981 1.385058835323712 1.922455006550838
0.8048406670304962 0.9360556776094269 1.978684810543675
0.8755242011203981 1.141645490081052 1.982060247964952
1.207817414509057 1.930128751882549 1.302774548382425
1.130481002521183 1.943635415914083 1.304182362759124
1.283864857735585 1.910824219311246 1.299699823254561
0.1051737257952116 0.8450297021734077 0.5813472252757494
0.7473759035338644 0.961275729098237 0.03321072785854962
1.709409094112043 0.3814736670816526 1.337881506859598
0.4169548550932505 0.5338911334924512 1.665432854286378
1.717250028471641 0.7975799842600635 0.3332327738368703
0.5029342995485528 0.7444715131879616 0.1707648814345463
0.8364772235300312 0.05310463163566514 1.276856394084954
0.9133646694983647 0.04747213799810113 1.291864680321144
0.9390724960842406 0.06883105423133762 1.359461032245045
0.281406719498944 1.660061226062957 0.7810413850358995
0.3342434353047248 1.716867388946753 0.7929508675946456
0.9069749499892087 1.000645649222408 1.995663559244573
1.49678945991685 1.618803394597681 1.608508497352265
1.220949214825724 0.03931915976041966 0.8318519471879915
1.295136965478362 0.06178294855943745 0.8193264380314582
1.271503952122349 0.04363814707324298 0.8920295862356481
1.348112198774419 0.07006319021145746 0.88152879309829
1.323943254414983 0.05501406279480592 0.9545869357623717
0.7394213234553915 1.736032657633962 0.3752162932449767
1.196856712368069 0.1890062297933855 0.4490584972234378
0.5029600852116602 0.205293984551857 0.6515840530088557
0.4415400968336849 0.2288677527066977 0.6942589433199211
0.4509320295852645 0.2554508652508515 0.6203015014397116
0.3911839515810847 0.2812204731887314 0.6642932663401793
1.883359622732652 1.319956287712571 0.6575036483715241
0.5699215121774771 1.867977171391134 0.7517095969310587
0.9906823623834587 0.3717346270838789 0.2220566840547994
0.2336249358219291 1.600001366042126 0.7705057260983601
1.339214450420102 0.3928817038563656 1.718568668335767
0.9620547506116529 1.929023652836195 1.368069572933908
1.013878634020558 1.903292802415796 1.428800066023247
1.791256806132916 1.505883099381934 0.65649606041842
1.840937814656912 0.4868145006391275 1.171651493223302
1.57369157960051 1.265411930035926 0.2251229265941099
1.624823757699251 1.210020016040902 0.2480113932533501
1.678389843743096 1.226009441590771 0.300924215683274
0.7848773928207013 1.915175984704125 0.6591551952849855
0.1364996478711996 0.8647016892857673 0.5141383849373233
0.2993329104390557 1.454976160376039 0.4503980321217247
0.1864042710669794 0.4218172345539751 0.9386267191431495
0.1437477472495521 0.4852767979829221 0.956501667100112
0.1718348219269188 0.4396823641409873 1.01365960367465
0.9154938747238144 0.1702496659285786 0.4482998115831659
0.896840609353697 0.1316549812333614 0.5148865405859681
1.69813591522095 0.329064369866431 0.75009677053732
1.34785383730139 1.907600391503184 0.7649271661421391
0.05639446028463257 0.7474307891031706 1.214049945399253
0.6005598210156675 0.1518144867692475 1.347892050151263
0.9804507792886394 0.0126133206734127 1.157115796335039
0.6438310071684183 1.46796933688344 0.1912056205176684
0.7164078221019046 1.473886454243525 0.1663291386167355
0.823906531051722 0.5029579660247611 0.15032929516458
1.783954434730111 0.4967835286031569 0.6364224605645972
1.190532088148116 0.7877352228881775 0.04154228690902229
1.324100541490369 0.6131146819275843 1.863295192657561
1.22860065151405 0.7337999337743123 1.936418318311208
1.449304175527778 0.6255880089994861 0.1888641181353555
1.600418346042597 0.7908211965739627 1.771843272907605
1.359420473394416 1.932714386804935 1.029339324328074
1.431354895280212 1.90184291767588 1.024744820784415
1.468182407291377 1.879013297796838 1.090226691168289
1.500768401747167 1.865348818303142 1.020060669802973
1.462466298896649 1.8854704385491 0.9545354551271104
1.528333720669677 1.847656082808199 0.951599123131955
1.488224592124074 1.865322932721736 0.8866290612584714
1.918355877247748 0.7992877560253828 0.6589177843346383
1.190620024348864 0.3722343234355174 1.754701438745665
0.7041018136869742 1.845987837529801 1.44356379708934
0.5489211309139856 0.1227455535686331 0.83582786448219
0.4293004201110922 1.194644784138301 0.2022435224190414
0.5578519161180903 1.308974542230537 1.842045013151308
0.281346935760754 0.5288828397871279 1.511455173610064
1.498014841298799 1.645008536106177 0.4203921962255004
0.7872788757488827 0.201977620092985 0.4361649137692081
1.961252389406389 0.7336573207611693 0.9288985156527061
1.944241603578766 0.6718059829362548 0.9736090690849316
1.475304948502452 0.1204843045572735 1.023180754926857
1.367462574420123 0.0900570147076456 0.8077111029784244
0.2919715922951208 0.7983638865872226 0.3232144714529699
0.2519257434804025 0.8519933116221478 0.3531005279581125
1.921145021947869 1.198264815793553 1.334937175241877
1.920610969866085 1.262277294013425 1.289285435525576
1.945874510363611 1.194170129854682 1.260037249863583
1.288513803498071 0.2644628987654628 0.3870196105106047
1.245687115354059 0.0312795776341892 0.9650917683002049
0.4719056068366952 0.8139036984536422 0.1714564112490834
0.08510577051862689 0.7117112677423336 0.7174081464108488
0.08077652176004957 0.6707299960577298 0.7841077547564417
0.5096189651329748 1.242810662822182 1.83700025248658
1.376148097384568 1.457575788330931 1.805690391383251
1.813702703201625 0.8023334481226605 1.546640508077559
0.1069793722205368 1.249164406565892 0.6252584132218038
0.3853553832363896 1.58232592575729 0.4679205780389272
0.9346859281157902 0.4154851579416531 0.1912500563045398
1.621617416325567 0.7369808498958297 0.2621567142006331
1.277669291405016 1.572089650241924 1.771759805053819
1.964376120178445 0.7354834023932775 1.003109408325108
1.261286972881213 0.5534811466586891 1.855774521362568
1.963846951024752 1.215737338515677 0.8436144003737529
1.943920667088902 1.237789957047841 0.7709373217444031
1.421638619421855 1.90008570444652 0.8901519264481896
1.942304668881732 1.257209654046189 1.214254766269338
0.7055316292594851 0.4568476107936167 0.2136960761049045
0.1037791941645569 1.014439688591892 1.443373164028946
1.820277416796969 1.503921191988006 0.7294295068595273
1.166479280490756 1.91489346606784 1.367769758019409
1.854377184371458 0.5429241600336792 0.7527727698157397
1.871370801790845 0.6056548443699297 0.7081013463246622
0.6105971911484327 1.275722164656196 0.1211696748656136
0.5516636694045881 1.669351493923833 0.4075786024710333
0.4744084950745404 1.806480580623755 1.270818468770062
0.5446804275379511 1.84757075017082 1.272594773221809
0.4083797149262812 1.758483994456258 1.273290081128041
1.604170315896688 0.2265611781576534 0.8082433358226644
1.548136089614629 0.1984370359794455 0.761161891707862
1.655407683524483 0.2582081456594554 0.8579239175262492
0.245767819174336 0.7821232201014983 0.3805942152449473
0.4017117832535588 0.3094839198477137 0.5935043016789908
0.3440386936075051 0.3377614749937607 0.6378468548895204
1.331884011568839 0.8062426752267381 1.923206965940836
1.889241137735555 0.7347447167227692 0.6273207362190762
1.96909070186148 0.798610836745829 1.142497777138481
1.009957200992056 0.4327329560085565 0.176526287638996
0.957909169980397 0.2806920191532526 1.693415020545731
1.477622141068249 0.5378974227698528 1.747220381466296
1.431904540261023 1.688282167475337 0.4171397028126147
0.2689252860556591 1.512747874552061 1.450132624649162
1.964454524632562 1.189424357117618 1.184244084969795
1.428553695859733 0.3327501328446884 0.3908043462514015
0.9989683411399403 0.1174571838829397 1.470230914977062
1.893155965993641 0.8109117021743745 1.408066215258472
1.493423444060342 0.1567064296952509 0.7869524486545325
1.863459893070515 0.5430279763470792 1.213573365982767
1.739811790926253 0.3552263697201158 0.8077879303940856
1.783576526276732 0.4073311151386354 0.8135826714458237
0.9161399519542017 1.864066385427505 1.496343403215962
0.8293864463043839 1.847831265100927 1.502068880944352
1.851042350895109 1.191706102374605 0.5111486040776163
1.887163371728686 1.193202518850915 0.5809368322404713
0.3563574875094045 0.3665230103528122 0.5705454393043075
0.0384939303294537 1.07994487077842 1.262897119845236
0.7548888069590363 0.863625909042403 1.959855515357142
0.2433620396312932 1.596545269187142 1.267642931420809
1.295856457288061 0.04509006463907905 1.024818783813062
0.01938476502879383 0.9051099738874544 0.8285659197046089
0.01853564844525057 0.9796873075534036 0.8094347325644433
0.4827887815106874 0.1883347017161671 1.271462702835246
1.944642677246652 0.6759167844843195 1.051188687669201
1.232718453116666 0.8660921431779598 1.963281271208111
0.4994306937867109 1.207784062292665 0.1596095234152732
1.977532699358768 1.193328069538889 0.9160114340357756
0.6434911631759456 1.346160903687968 0.1322015913679668
0.7224290498448547 1.363385691359071 0.1106714853635584
1.29152773653247 0.5988898465555359 0.1315978905852353
1.561901163678223 1.19904191616935 0.1970993848148503
1.280602567182398 1.395795088333942 1.874418919821258
0.9965230443694625 0.7330464304469768 1.963703119473234
0.9550156352617328 0.6697502520543354 1.94282103864462
1.269939760179217 1.660000476165081 0.2989066414975444
0.976533668913281 1.998814551435672 1.04264766283967
0.8507805711318045 1.525799665355457 1.837417622193573
1.181403333038688 0.275488144080871 1.664962706770142
0.3671448084748156 1.173920445282262 0.245516080176362
0.7274652796594663 1.698625495428962 1.661549123909589
0.9630825511100615 1.573772974600276 0.1818180669399928
0.9097504055780856 1.523869890592618 0.1529962524066625
0.9326315277454202 1.460219446285543 0.1147545254525658
0.857153626546681 1.471280931883267 0.1296614470021022
0.5346539945092557 0.270669557021633 1.501527865745052
0.4696573676959728 0.2993016119988803 1.4772404649791
1.28731531856646 0.4925366412013261 1.812361278738605
1.566624626678404 1.823874164455762 1.012957375655527
0.8567160598022744 1.219454429171253 1.965043763773713
1.697615343376817 0.4931554510484824 1.506400469868837
0.4239704350903761 1.732365896117744 0.6369158023905711
0.6191607187669748 1.680892547008207 0.3744228414507217
1.643876943912574 0.8645590835249445 0.2469540258110389
0.03173136272776511 1.185930758656502 0.8330101827643764
0.04980473918756512 1.256773978325109 0.8233758499392412
1.773616645428976 1.562299406358335 0.7078756026548236
0.8121380820656409 1.957252100174888 0.7800538327208466
0.7359289631533723 1.94054972865606 0.7863818935020755
0.6994899865157729 1.942458963353657 0.8534911805041776
0.9532598725939906 0.1030666152130891 0.5603116288270006
0.8810556729984403 0.09964155289476007 0.5814227504983258
1.728437829290239 1.308053472628581 0.3880511566638947
0.4345854119625246 1.640630793798242 0.4804824067735081
1.001060141515773 0.3249017571538643 1.73772707596104
0.4623007893493913 0.2862590322011008 0.5511644067688
1.89332303226469 0.5509861428999274 0.9810127369656757
0.02445216790999183 0.834860486782644 0.8549642510316168
0.9298107200740922 0.8657241146834612 0.01154491674839253
0.8995883802306806 0.9380507711219779 0.006984491734031373
0.9606584325226253 0.7943045696230625 0.02217505094701655
1.48161270045961 1.20096610927238 1.853030966424973
1.888689031819394 0.8018141601810556 0.5865339462311719
1.351691121986806 1.208552471045252 0.08741070489700509
0.8592243041741388 0.4040636778888114 0.2094039568443729
0.5945621759792354 1.071832867051147 0.08870410400105511
0.6358363237972573 1.015429878816691 0.06879286097334592
1.095192509605696 1.98980811090959 1.105916427869135
0.2079674627247684 0.8339865864813657 0.4125274419777126
0.1171885406211044 1.433959169626055 0.8202129974476206
0.1531399525739029 1.501718673477471 0.8236298416469611
0.4796824173697823 0.6403204252112167 0.225467743289147
0.5126183191102085 0.5716970289681147 0.2390692133062945
1.095508642931792 1.966631778859647 1.23769960711781
1.254021531003662 0.6261027869368604 1.892005569405355
1.077010819925661 0.3208474095339309 1.729945951750953
0.6288773414756337 0.475723705643468 0.2335782234920581
0.6682267510372086 0.4136711708090296 0.2609837516453243
0.1316939572391285 0.5045739937243121 1.024447666773693
0.1588351165746777 0.4649237261702325 1.078326368973135
0.2034227207980003 0.3991494664378999 1.066657892085477
1.424846901897567 0.4805727375842805 1.741417850477954
1.964982165289639 1.128960862421936 1.228426173273357
0.8263569506385731 0.1288047330900731 0.5407975410320561
0.240577342434668 1.62962620530423 0.8361461969602053
0.4147613902686262 0.7212479716860709 1.761441446462273
1.970197020770476 0.8566517594176178 1.195368940238793
1.379743477245489 1.665612140184799 0.3575395962955249
0.6343941891740801 1.349452561797899 1.862679139740383
1.417597094440927 1.199717840629803 0.1135884416092803
1.458916365767048 1.1335034499559 0.1216079473941958
0.1231592302580639 1.362102167455269 0.6837211912843906
0.4347697460707443 0.7598455626240284 0.2107974871734761
1.923389929710565 0.6599336279814234 1.178061507157613
0.3291618829622023 0.8252039750135913 1.720709768476973
0.1507952544093504 1.465430223744723 1.249451411884674
1.366662479073943 0.06974818629807156 1.013790922508045
1.344174907227227 0.06468350469040685 1.082016381515581
1.022440964456099 1.395852838074281 0.08196027662044081
0.192350973897973 0.8677604111164794 1.574644013079719
1.611056918371438 0.4904057621899929 1.605741822314788
1.445596636722047 0.6951462056880039 0.1582709453538038
1.498271717952455 0.7517994607875637 0.1692643095283767
0.47568556006553 0.9343484762819114 0.1510098672483312
0.5434085292755608 0.9503354039168348 0.1117108259369646
1.670818501471915 1.152357260815533 0.2741971320256708
1.780384659322868 1.45617911890122 1.42766855738064
1.766788421850497 1.517227265590397 1.38014664518565
1.79759444505143 1.516172857263856 1.31210364087458
1.750203898860215 1.572452471330226 1.330896174355113
1.715150448155229 1.574242786065177 1.398503524646242
1.775453099999625 1.577662452256385 1.254908966013579
1.451594744328638 1.874667846517257 0.8238797423246962
1.518930700691381 1.838261188243647 0.8325810400094971
0.2073118498644422 0.7608240379890884 0.4392501842792792
0.3016438735912682 0.3974821911497821 0.6136439327178571
0.08742640666760992 1.36592047538813 0.8174852267783929
0.1747979499014386 0.5421462464136619 0.6692258824514343
0.9193969646926724 1.495301082919665 1.864973981087208
0.9906349837197846 1.564046418498907 1.825689974656727
1.022606530953322 1.621649375708189 1.782969347062754
1.230265304120788 1.165766585554698 0.04109472374394652
1.715499340606445 1.286522081196295 1.63715444797842
1.656823608827501 1.309615461231194 1.687547098789176
1.720231290963005 1.173171088851265 0.3282272247970821
1.593877547113498 0.3103075497089632 1.414287078058199
1.529553869919825 0.279321369857543 1.447431571202713
0.03641872789639 0.9489051933868711 1.262488957459844
0.0520675042750286 0.8805757964379329 1.295231846439697
0.05687130729369838 1.21373842315544 1.254605882612968
0.06022977593530576 1.269160292388331 1.21067667873503
0.01785410655278297 1.108371154650633 0.8462302473681633
1.443596047513112 1.67381794780315 1.590924631276355
1.508272233472332 1.659558558042094 1.553752512585254
1.22790238342056 1.623353137738745 1.74799155697273
1.247303853901542 1.680682817593378 1.689573567995892
0.5670992471520319 1.370373499381354 1.821839649286692
0.4368695183053509 0.4255363875589377 1.594033348026453
0.4484019443284631 1.815540655035731 0.8249770730353574
0.09419421009158169 0.7549173928674665 0.654384047460904
1.100454233013559 1.395219687385651 0.08692259595779861
1.582579026076257 0.5274463826858625 1.661282660546429
1.054020221912563 1.951430643414489 1.303086697821614
0.8458936764127146 1.395131309338575 1.905606144751014
0.7808064693626053 1.35072314070065 1.910465526367575
0.8811504423391618 0.03283412068421798 1.224644039607449
0.9691161602795038 1.964314758589485 0.737048987812138
1.044673435778781 1.957974666580029 0.7166471769567133
0.762619015202873 1.033248222657567 1.970847477077043
0.728503601915875 0.9386203826213719 1.960480217598363
0.07655298166722668 0.8795866272785564 1.364343552162183
1.213126869037901 1.470990525224951 0.1439948231217137
1.495566327080609 0.3724620771335116 0.3994917395836685
0.04343993190340234 0.7804841837577499 0.8081520327380791
1.960932431781351 1.241395223565031 1.135414945965233
1.977290886039955 1.181067616513358 1.110077437803628
1.914862343695014 1.320003766737319 1.246220391850053
0.8701500046421015 1.415013549757349 0.09949862175377078
0.8083260055877081 0.04174939891467133 1.212171782727211
1.582353240549525 1.810605027740236 0.9384842115898826
1.6298037663196 1.776727194147109 0.9935129512098182
1.471666407144584 0.5634812353749221 0.2338523846532476
0.09066914790480707 1.345709491383596 1.231521811057028
0.4253707836840185 0.3746883728876412 1.528002493132538
0.3635676454970266 0.3983960532701297 1.482728235574474
0.8362125223084251 0.2027729422009588 1.581035868483621
0.8637624795194948 0.2445133874733741 1.640842661116102
0.8220055741614098 0.291391951299714 1.68278299457995
1.365390621404311 0.6034308340334925 0.1578464567583888
1.033172951383373 0.0874960058847768 1.407720512140708
1.106168564529626 0.08707106675891096 1.394067251566285
1.42158863143504 0.1018425313614731 0.8751954032354425
0.6663711319393075 1.918459182439477 0.7875746988017926
0.8046225985385619 1.415043428483821 0.1114243850574272
0.5799305246131252 1.203649552745745 0.1156536337414769
0.5630743741150463 1.882309224557977 0.8249959151764079
0.5723160927072065 1.813874829811416 1.39331188240658
0.7166464742436791 1.378475918479863 1.881173512182638
1.516440488313209 0.428054338778981 0.3626873744846523
0.442203785052817 0.2767817156078458 1.40720841802628
0.01076487279465488 0.8895761439801516 0.9039769031704754
0.9138951745581112 1.321299212034641 0.05694497754291106
0.3793654924272719 1.738938857716845 0.7377364444569509
1.963008609625545 1.16301760772548 0.7854314157232347
1.941142224612877 1.182692304091969 0.7156149879541951
0.1787413814089639 0.9450874452439934 1.567907468448964
0.4309422426530872 1.79598449332088 1.20635395609487
1.954650909168957 1.109606045577631 0.7231820880150313
1.930392311128393 1.127094551999812 0.6561728308508252
1.920642122322768 1.311792663922795 0.7650459250641587
1.384884903743546 0.7241166111552744 0.1192321721191951
0.02935961191139391 0.886837669768336 1.212253442911393
0.8776926667340285 1.819606902404719 1.559719073964706
0.7995094399668405 1.803109668308309 1.56108679899576
0.5943717291489512 0.5396567090129959 0.2103483297493491
0.7719588935164594 1.75221035854461 1.618204521377797
0.808881971654215 0.07188992672027172 0.6804916415523418
0.6989421183893498 1.912529386295628 0.7231349226301144
0.2920301051756453 0.3675297964645579 0.6857388511727411
1.317014758757931 1.534547408301392 0.2165711831902557
1.35925946729096 1.574735902407239 0.2647372730472789
1.488976842667085 0.175489333282085 0.715247813346924
0.1386716612589601 0.7826330367532084 0.5407995032989746
0.9932441928735354 0.04658516634625609 1.301586660910382
0.1059535531855558 0.6069688526217534 0.7850407756596474
0.08005164668542153 0.6360463371280031 0.8542853524320491
0.6150088086001937 1.872141662530998 1.301911747075572
0.6506323940375615 1.902827843397501 1.250687377205736
0.3087730112301228 0.9242853230790036 1.718660238008809
0.3602624952226318 0.9485546104443159 1.766869804383176
0.1076036848524485 0.5495615720505467 0.9729068396546821
0.4331053355897831 1.681105051079034 0.5366142547964454
0.1452847699813616 1.363739112628481 1.370345424594973
0.1823873718886888 1.383442584328353 1.429512950766922
0.6094750829791677 0.08870139912418817 0.8695195446526194
0.6689479412680012 0.07214871442739224 0.8282544723418849
0.5525306944492606 0.1102984957860219 0.9094325997429338
0.4084671813144392 1.122961604322992 1.796849652243277
0.3908938084899241 1.193194560817346 1.769197964853446
0.4765694781600264 0.2236118969827251 1.351058402975303
1.487598255716439 1.192929066180938 0.1485152282953983
1.278503644968462 1.217206178288417 0.06444818644148786
1.201748056440958 1.234384839259211 0.0490207842188507
1.82377143159561 0.5595800505746145 1.356974644246703
1.799116418093463 0.5682873686618795 1.418374418764567
0.4555621182557813 1.184170349580396 1.818332863361421
1.411505064320053 0.09104905298674537 1.066871204285977
0.1157773442035357 0.92697576792236 1.461321749439281
0.6917731005830232 0.3349208632595206 0.3198044984356809
0.4324063468398217 0.2086325350159911 0.7728987444837292
0.3769778660418831 0.7296801933154451 0.2659900390919077
0.8278588720637057 1.002349205165434 1.985069496689402
0.05454496670957965 0.7102416332711556 0.8511548827255568
1.916678042454133 0.615196095110061 1.107830057330566
1.827879956334274 0.4745180624380866 0.8038278531591769
1.850956559325121 0.4876111853392039 0.8845416232919575
1.981131910069089 1.133017447983662 0.8596912918736141
0.5675212107614533 1.336782966651097 0.1636153216178295
1.237369529427897 0.4290362262323378 1.785910984491354
0.4845621120608338 1.305252614474596 1.800715071066628
1.190626004744785 1.302671482790534 0.06616291580360723
0.8970050666665351 1.967859401163696 0.7705654270021927
1.833233199276415 0.5493302710873897 0.6796576346072458
1.848750040562384 0.6115710860076717 0.6411875874219345
0.8852468869702719 0.162112942750206 1.53364501528944
1.264362589395953 1.201065642000273 1.943231164102886
0.2485949682706543 0.433336442454896 0.6619424740637363
0.4049392778632869 0.3326747525779983 1.447861307910493
1.248780545015463 0.5387203575871603 0.1483373132998651
1.559392123582131 0.4129251052268772 0.4148303493845558
0.06176833447962904 0.7890111116159693 0.7257646434295134
1.217571031063108 1.26331342251026 1.939855780408925
1.819853623332702 0.4846310877420936 1.249469277840664
0.1534453477493126 1.31816050133453 1.426754163592201
1.553586788369533 0.9255236733371242 1.829454606660009
1.190950840402893 0.6635536338167607 1.922139696158626
1.227595799900687 0.8569232517878778 0.03681300050892955
1.150602844369595 0.8556932226068161 0.02199471511336837
1.772760998932047 1.281474587574524 1.568869488616938
1.814417360352007 1.209463784686055 1.541155510054423
1.007724394148006 0.8560503141676283 0.01044513962903115
0.5318472819450948 0.6724233644125598 0.1793133482290468
0.4073803798442043 0.8341178775049858 0.2117835911103161
0.808926678589128 0.04833501186828948 0.7595322553661537
1.652278761847241 0.2731170399093226 0.7851196165936842
0.4326022895873445 1.051864955136028 1.821808897887589
1.714465054818582 1.206163556302851 1.668607712710257
1.540961436365676 0.2229120371559614 0.6782935773595942
1.450061817764302 0.8687275912565934 0.1167039483313671
0.6293606065064041 1.813796270496225 1.447618219152365
1.396534808689537 1.273335417688902 0.1236165822344734
1.615957810031903 0.932274847071367 1.784862586649087
1.642360660247999 0.8613802079288758 1.75376212123714
1.663060812263954 0.791186118265101 1.718851251674969
1.700296705923535 0.8611372953847494 1.700215447515679
1.751362382078648 0.8596009680373071 1.644781112177643
1.732058045387734 0.928798363032316 1.677511140186058
1.581021807480092 0.8585945662445017 1.80150992666154
0.9278358092561062 1.789079217771193 1.610037964110334
0.6027946778141957 1.407083147395399 0.1774969646658275
0.9312689057208741 1.197051213851473 1.977981009937747
0.9355509593176841 1.143282682474436 1.98758108227024
1.008208137417049 1.171167453439578 1.985207759491952
0.8883517325413505 1.073527081364441 1.991023931436325
1.963675892086821 0.745404367579741 1.080683573069105
1.98147884171209 0.8221978181357202 1.071313865382518
1.490459625900192 0.4785562894008724 1.698244808099894
1.25147885096181 1.334506026324466 1.908220295892766
0.0498645274861208 0.8186207584420014 1.253661496097994
0.0332523658015379 0.8149640867736696 1.176524000034484
1.122290934065792 0.9231932254438879 0.01048211394255105
1.080251825397932 0.858777326506466 0.0132802824450915
1.054242607729143 0.7914825357591497 0.02348670945383025
1.472622011663582 0.507687760407928 0.2690710753849539
1.429247746542708 1.071344259019105 0.09963542451236929
1.905903570203567 0.9332928274105018 1.418197171938722
1.614938053642288 1.065726754965957 0.2141684761577204
1.675675066331411 1.077937108794567 0.266931782293907
1.996937396429334 1.067687193556799 1.039169776985653
1.991083564139994 1.133220501819187 1.002380501335668
1.828570723665182 0.9333017712264537 1.555897384562501
1.96148959528995 0.91757536575777 1.262190651662494
1.940864197865762 0.8733858839259234 1.314234668337527
1.869770959403135 1.066872429087884 0.5110965776282221
1.783940177434081 0.9332874309830943 0.3827583687567844
1.554900737602965 1.065506793733602 1.829333486230014
1.936094320892237 0.9331768037837425 0.6546565726110531
1.422585170738659 1.067153942609959 1.903831909960982
1.270956305628775 0.9403004083527092 0.03926140954099666
1.783393378695014 1.067877552499538 0.3821914114521535
1.800846064274701 1.127990175568763 0.4149665853187533
1.1173609562131 1.054772677661125 1.991577712405123
1.678642637804951 0.9330118972160849 0.2685926140388321
1.19567132249232 0.9345925011974627 1.978485867375969
1.752866760600604 0.8638578948157599 0.3560613631884197
0.9637753812050315 0.1532826484909597 1.530808349262402
1.04048103368475 0.797577190279537 1.978461185748667
0.9668192922862041 0.8010046528891083 1.979438559820792
1.990823492696111 0.9320690881849022 0.8831488231062748
1.784899027895025 1.340445392348374 1.517716573849251
1.448803887175502 1.13579190540492 1.883252868256119
1.336686139799269 1.466470760901621 0.1820467785435835
1.74555780747735 1.405523285024655 1.528861438386634
1.326538024639422 1.332361411649821 1.884821343837683
1.889882919609042 1.327495880604777 1.31757650664838
1.50836081395768 1.264293486293389 1.819584184776141
1.571835219210413 1.255929310731731 1.779425859193137
0.8014481087946241 0.8106864398532858 1.961632737818001
0.8355188116509842 0.7381379453641741 1.950985911052945
0.7350511990095785 0.8035338600060662 1.944035586558908
0.9921656471481316 0.609646585831934 1.920631758610752
0.9508408234520003 0.5471215760809964 1.890215989807958
1.554390088333311 1.38518026086187 1.737758630312222
1.61741092698557 1.377827162186628 1.689964044536248
1.844808370907903 1.455716607913062 1.280394703438114
1.724823181104855 1.513132565800656 1.459702432066521
1.671671502971375 1.574949098804942 1.467216144712016
1.663671525054976 1.623581722153105 1.413141552773102
1.618270342204891 1.629519902965521 1.470580998044044
1.179984290560085 0.540311151535102 1.869650399728879
1.397824662059349 1.516715698985541 1.758116366186121
0.8375975318981919 0.7507659747072639 0.04527080332126587
0.9129186534442383 0.7361537070779325 0.03937417649049335
0.9859181216650095 0.7277108788979145 0.03788756622107181
0.6924721249350357 0.04997491929130415 0.9463441328234865
0.6353309065021218 0.5883864012196425 0.1647810481397596
1.547279359659052 1.560858014832439 1.621227486263602
1.267012184491433 0.4077877275476675 0.2397440446205257
1.208530336200307 0.4397212596871175 0.1983748806096477
1.196888772101845 0.3783805736981618 0.2418284493174377
0.3213804969182069 0.6232621522053641 0.3694889659362922
0.6740097337801337 0.6420224508608618 0.1250243313998745
1.083548135958643 0.09082084127672074 0.5920625460673338
1.028510418306773 0.1122020165890399 0.5406505723314705
0.6207110746719571 0.3415857316570339 0.3498995751686553
0.5154772537730121 0.8729538019610672 0.1344961167316981
0.6172210944304476 0.9202808589594036 0.0796059713347087
0.4101278535165833 0.9298344330226186 1.804442442946535
1.093911985136698 0.4196598874938382 1.808941217187022
0.2226123025691356 0.510466064214856 1.394999865313705
1.504527597208593 0.3065497214296828 1.514372058733436
1.46096846440481 0.2747132306203678 0.4886613871541404
1.906546736195084 0.6668655214855483 0.7407811073263643
0.518247832910316 0.9618865940458723 1.875478279451277
0.6038000490614328 1.152436317970392 1.905421872852598
0.9404094784045943 0.01781822814747447 0.8217643784856097
0.86403447589883 0.0224952041349662 0.8387618211565484
0.7822801782093209 0.03718656287518018 0.8400363650971713
1.942226720879766 0.8653196821258216 0.6932916394398851
1.004238461756722 1.45485825442461 0.1094462375444514
0.2618090232755138 0.9251906707986913 0.3295690593752409
0.2239529951206368 0.980490181052056 0.3696267667624297
1.34017266572626 0.1152079905233296 0.6815260490104007
1.266713680457613 0.08742189592751837 0.6900564299356586
1.700500308110367 1.622099827440417 1.349701477028457
0.7633725191954485 1.69138704939183 0.3173643847107369
0.6390825225914444 1.634140560475625 0.3161839983879395
0.1296765406954155 0.7254798609465303 0.5911286639562942
1.131907322852999 0.06392102611944528 1.326123615882816
1.252015039322537 0.1707418383464635 0.5011820760174537
0.4595661788925053 1.552719405723418 0.3656242883433319
0.4171172456290352 1.488740409566007 0.3508617198822971
0.355687858480195 1.473490865162544 0.3994433707819147
0.6524548730955158 0.8403034334319706 0.07603604432243738
1.145969985557221 0.0227630075140931 0.8460499307128306
0.2091379335682051 1.078168906080765 1.606981724602453
0.1958443929738276 1.147400344382388 1.575853191503114
0.3829260366942138 1.676797511223932 0.5985465747920677
0.473764746612053 1.56964034340631 1.631336944313941
0.4155586757426467 1.517850236737897 1.624707508207494
0.3632945570044175 1.522310612872682 1.567272247285519
0.4222027108878333 1.578534109056215 1.575715708794855
0.3112601722679258 1.46399470037271 1.557087396843289
0.942823939254523 1.777317426183038 0.3734949984000079
0.9955541991520336 1.813820398547844 0.4189005302340667
0.9732286017237233 1.854011316081092 0.4804348315756974
0.1349617805654378 1.498794836901208 0.9460315870329765
0.6687476368295275 0.130630251711976 1.366698940079727
1.153484823439941 0.1185141720831243 1.446570424631223
1.972767171355631 0.7980697193031678 0.8862098770961917
0.3845324304523638 0.2567818607278594 0.7376520091710581
0.4342694703396796 0.1891593325633539 0.8500454074022817
0.3357466704365232 0.3110367011891397 0.7100050223616063
0.4890131241094382 0.1624532786114329 0.8065887744755603
0.2120459052488469 0.6812263728147311 0.4732061891251587
0.3101441040605147 0.3821242025234705 1.377264286316997
1.015937756891722 1.619506338248045 0.2151701555268429
0.9424324066994707 1.631322812696911 0.2266194478977085
1.585234976453245 0.3764760196194911 0.4816199577277148
0.01596267416612418 1.097146307265421 1.149107801105129
1.24582355086992 1.716883102363446 0.347581883004875
1.196035511660854 1.683403913257776 0.2967723202889233
0.3839373589105211 1.784735508844404 0.9317577593233435
1.060344990745603 1.932888687698197 0.6449265168213076
1.081645478437132 1.902737975498499 0.5776279324533362
1.127942467220115 1.922495559672582 0.6358123183494546
1.150562498275937 1.892586873754096 0.5750063448534818
0.6078239272974919 0.5469565271123443 1.800593242335663
0.5650493337151448 0.5011499174244105 1.749644257640041
0.5368544210740213 0.571315915301535 1.775710080021885
0.4831710785518705 0.5265006671323083 1.713222439165099
0.4695365318953472 0.6021222935135488 1.748533125310741
1.086168160027828 1.983108486554927 0.8385294086804052
1.398691700827849 1.607057654904509 0.3125947837608188
0.01242315698664032 1.014282210589269 1.156486413481969
0.1195071696304119 1.198118595501955 0.5693244866676486
0.6940101460971331 0.7638813338856321 1.922289642585708
1.663003836430905 0.3266447630988524 0.6728629678319783
0.7474025163979165 0.3013390954530895 1.669378406983365
0.7826198092840262 0.3453732973778973 1.724023295825763
0.324494222445609 0.4627366657282547 0.4949850951329807
0.3798844769974258 0.4425601109605888 0.4479877644118994
1.48878189716539 0.1383429683985734 0.8634737501605644
1.393779800379697 0.08235439827952717 0.9464834749259849
0.3417718003374415 0.2535139095063133 1.097437948810709
0.3285734260243949 0.2788126985946463 1.17051460949445
0.2874123700645834 0.3072382047881295 1.110905206180107
0.2234913344696902 1.627455753363303 0.9422629241507006
0.8421078050681157 0.3459909331779449 0.2601742128756687
0.1428288278716721 0.5281269096392686 1.206381608351038
0.1826505280567926 0.4596454023614954 1.199891844568731
0.3767377106833585 0.6007926422195062 1.672441524751183
0.4085946492612763 0.6518764440703995 1.727358028019584
0.1402644401799945 0.9760846667533951 1.510179207746342
0.1386627802576199 1.053822408693909 1.50517456607479
0.9271604925664174 0.007578771397699691 1.098967222737298
0.5324961542727734 1.422653582648727 1.776404600259716
0.5903317969028219 1.482652597912958 1.774092005577503
0.1219806050405611 0.531605100518815 0.901571547736077
0.05595157365717163 1.148746448042198 1.294358731676944
0.5220956760261658 1.875428760887542 0.9276678374579109
1.391937738198427 1.784219622185732 0.5189756829901746
1.065422778358435 1.831620614854969 1.551477119217204
0.9945534341104769 1.852039387971635 1.52344934450712
0.07199771395240906 1.277658536527346 0.7515699410620014
1.201534297034856 1.854994711940671 1.477878613951446
1.134105499974412 1.889281566262478 1.43725737361692
1.060302855752806 1.87464751960969 1.480994056126136
0.9521905084924704 0.02696720796436369 1.225657789905702
1.349066945853245 0.1827898011081991 1.458606321521968
1.393269121897076 0.2299474137789709 1.502352876190241
1.517314759510846 1.805833772142702 0.7118726474863943
1.584240755337048 1.762500732178222 0.7220514917635446
1.618139804059849 1.758112567137464 0.7922296503706659
1.588120140307789 1.796285174482362 0.8584209709598847
0.763668616892363 0.6322506947626579 1.899393087507283
1.90123554319229 0.6443740636273887 1.247597837361319
1.070483466590827 1.802368005633348 0.4073469273906501
1.019502486133928 1.768620690848368 0.3605925503762306
0.06766952989824238 1.357811284272135 0.9477412268861828
0.05994082965647629 1.31674013108667 0.8736495128135831
1.80535731124956 1.585834379343305 0.9094589529753269
1.828364884012572 1.540591138992666 0.8531230468131551
1.84908526468548 1.522987388762024 0.9255795425311776
0.03560082980208767 1.002909156931167 0.7355651737619874
0.4578518389703086 0.4708376367771009 1.652734681812205
0.2230427433488421 1.450672962798704 1.439580825263506
1.317301183684858 0.08579013729868257 0.7479280147024933
1.098340522882901 1.925070910594089 1.366841862294559
1.323287661005986 1.917449518703277 1.231886758725903
1.359319319909442 1.885798545015215 1.293684463308401
1.316788449535583 1.878671856708786 1.357184611186955
1.242519998998104 1.899889342491175 1.362468234962404
0.1579985225012549 1.386366605669846 0.6234972006570314
0.3167330888528133 1.404895487771416 0.3923767844183953
0.2460630834303387 0.5980456093919382 1.519626590644025
0.1980737580529646 0.6234850645749315 1.463843514429771
1.392304286572579 1.918964385050207 0.9599774345390648
1.854140286110346 1.319437198802389 0.5896291339963085
0.9346570557857492 0.2136248770677641 0.3857162987065959
1.285524414572082 1.957799145623255 1.033115031732326
1.245711121926757 1.96877389732865 0.9667858401257372
1.04529653398846 0.3312295102439066 0.2579122315790219
1.066221665679238 0.3897964889719969 0.2105277926844005
1.084901746073498 0.4548946542616806 0.1659425346169615
1.019301197744669 0.4936189001427312 0.1379062432235321
1.157537505264805 0.4917507315747174 0.1533214213291407
0.01759895035954739 0.8234375283360867 0.9390584602650461
1.534472966658607 1.841492555114416 1.078923555407495
1.503767289903276 1.849353441773634 1.157534912228342
1.431454997087206 1.888060870033981 1.158727680645083
0.1897634252138057 1.535652903750647 0.7621078824714121
0.2302827221024906 1.563785659105664 0.7005320673380209
1.359593154622797 0.2968506527296865 0.3865884264364117
1.507677167166124 1.82864009628366 1.235837835745636
0.8495420983821909 1.590946646130961 1.792555664459812
1.14053134675409 0.2140893651835235 0.3978410387100058
1.214980011730156 0.2370102120191739 0.3903852216411775
1.214787832221084 0.2351906471237472 1.60739842021755
0.6558990967182255 1.651975468541019 1.675664529764132
0.5884099713295934 1.852009728790623 0.6764678217777655
0.7544069817912581 1.951012806150522 1.187773033060742
1.305427213748068 0.07276647474172848 1.216684578914168
1.375464265300567 0.09448338965127012 1.197651850142749
1.254526962658134 0.04710945056664606 1.16497159173817
0.3100294822952266 1.15378093489756 0.2926866968872709
0.3453756375913822 1.098773295331512 0.2505263311693567
1.576409495064538 0.1911577742986884 1.116302828521034
1.5286882748605 0.153957279103175 1.06855962691355
0.4828280619664939 0.5231487955802334 0.2892636808533806
1.134604469103736 1.975917469555081 1.171658758921615
0.2028242769640544 1.241160044790335 0.4465086275298948
0.1802577146481168 1.167440661831836 0.4522900307905758
0.3186573512869144 1.572525201390403 1.45605601499982
0.7388854781953319 1.961827848642131 0.9181074113294198
0.7826074563703527 1.869267850372303 1.443975096467525
0.7533971568161615 1.828782403470543 1.502301468673183
0.1378360072037956 1.145251725584262 0.5146391180363825
1.968619590950366 1.247018333962933 0.9724676424307286
0.5677103873380578 0.1869987940903787 0.6099298396774119
0.1968393391195148 1.534970370040179 1.262182486053313
0.2043453315967877 1.570492939544313 1.203645413840488
0.2193211037938124 1.340904540196067 1.523760017080339
0.9176731225231477 1.947463103055271 1.309088908881876
1.640590132478805 0.2863944057058742 1.283568929826443
1.695903798576013 0.327045632268274 1.25069966509405
0.6077611314484638 0.2458071279930979 1.526632492172094
0.5690304924918435 0.2994877256402523 1.568812655511031
1.520198159756291 1.319995009113162 0.2081685351485233
0.7177509398048461 1.777615121359234 0.438172454348831
1.757638927204481 1.504926391164018 0.5864391272248748
0.2867426592058697 1.50207027774064 0.5109300642927206
0.2970845251522923 1.656800422021098 1.272989085592317
1.373738913922792 0.3531967676587779 1.664804334261412
0.800088847341589 0.1691353588714886 1.519325985451504
1.560625494501964 1.598289762482486 0.4275068428154979
1.548149317610612 1.654273541509255 0.4789832454863299
1.462112069082827 1.507455335114473 0.2727163424963774
0.08933931255919048 0.5947221141786395 1.080292886447061
1.81211058252053 0.4302894747877253 1.126120256979281
0.5575272352777703 1.771860681666828 1.456562088412832
1.513803487412198 0.2119191248231942 1.339019926410857
0.8987346694152207 1.993798138157733 1.045941195193182
1.935088034365871 1.342187633329941 1.092292966047398
1.914628063347249 1.362764191137846 0.8215128929984992
1.882700317694074 1.430829872654324 0.8123147049674942
0.5211499591492784 1.084105117817457 0.1261413343485264
0.7116770786743649 1.949672710850299 1.122440333650703
1.631199600294346 1.422031352473701 0.3492492012164131
1.680685344047137 1.431338994955426 0.4078732113556476
0.6758313628995805 0.08675250215803776 0.7532335063144683
0.5740223120197641 1.754249483052805 0.5003493954195702
1.729540264741464 1.374568499585068 0.4277505428228479
1.880885662826379 1.423415736086846 1.211564560975996
0.9297522806723335 1.984862053573859 0.8415323586357679
0.3195174912322956 0.7435697054029569 1.686430666035605
1.788771148021553 0.3892871446938502 0.9302154428790196
0.7288142696674449 1.882230247914264 0.6151258785925774
0.8906779780004545 0.09606095165121076 1.413452406422089
0.4237600239839922 1.629741729175733 1.520934587617129
0.05912528880701406 0.6678350175262717 0.9335078782430339
1.69987686745385 0.2860060042076606 0.9803800006250062
1.653018991224043 0.2456861935429185 0.9323473689428001
0.2124782335872055 0.7923509536238489 1.580251101649232
1.714993536888418 0.3246185996629074 1.180677077368707
0.3205334625693712 1.268270035176312 1.682902930685271
0.3668698850924234 1.329010269313827 1.70064149197943
0.1396768839317339 0.9393608492139088 0.4938705409181062
1.37656615087588 0.1593597620215994 1.38925817179109
1.766584864206019 1.617798039596333 1.175137740767564
1.591720213353939 1.663378610137509 0.5419650573150612
1.528068079356642 1.708613644688708 0.5320140962319779
0.166298247166765 0.5085365321048336 0.7481964117665347
0.4955312075413425 0.1602592653297712 1.200864969496446
0.7937599982186514 0.5654592104241236 1.876720801544028
0.7441887714522905 0.401906788406231 1.759503209732758
0.5685827727760935 1.893088733672092 1.127560534031553
0.3127694407327127 1.71289508218656 1.139623637695735
0.3599741129337845 1.740061832040575 1.206580126444564
0.3215535003612939 0.4628669539452497 1.501197005142621
1.516687200292111 1.730871202789362 1.445939033935729
1.400970832690118 1.73397521349126 1.548181336158257
1.85618100737664 0.8059143103722592 1.478836953136708
1.886732984794374 0.5474971271925539 0.9054179521332443
1.690306705477217 1.723423434787702 1.011626967496019
1.673194796790692 1.736666621735208 0.9357267240979982
1.725197852552009 1.64818462432976 1.232260128813457
1.620454561308273 1.703022220791863 1.347557037656604
1.378833648536964 1.875448252836034 0.6998743207546099
0.2236740621503485 0.5017795840235157 0.6138724882553976
0.3950653228186903 1.720629826654261 1.33874280697868
0.2337195157388696 0.3622516677638895 0.9219533205665525
0.3327841951796661 1.199001096749287 1.717789407340715
0.568239271219725 0.3963381344899074 0.3297947887310927
1.054833458409438 1.674293158194771 1.73642516839838
1.121144009101798 1.655087939310807 1.745777393615725
1.261647096709105 1.730086371744118 1.631280196566633
1.315609051887451 1.687949834618236 1.653541086248942
0.1307547333007345 1.467404055935763 1.161077977438633
1.753464694521035 0.5424492629387916 1.472163400874177
1.150762660392502 0.01274967714743658 1.051062904920151
1.098846460524493 0.004918523312643197 0.9935013851099647
1.313780188949032 1.934312551655553 0.8308785973272506
0.002509810046495531 1.051430419779067 0.9513355071138042
0.008308562045657331 1.028691454597599 0.874601067304694
0.4822496653337445 0.1444719907948432 0.9974669349709397
1.91712329278713 1.261685321946321 0.6993246632908813
1.889969677295404 1.255111835362094 0.6220159726219943
0.3347657538619317 1.227637355708301 0.2889130629443062
0.4255598548787404 1.317782244120294 0.2456572629136434
0.7088196737857702 0.3567105121289142 1.708090850400096
1.65431538183407 0.3460945527724739 1.37984081821403
0.952156324814886 1.889523796648723 0.5456230662319863
0.8973592027551878 1.85939024301795 0.4990875556082691
0.6304471879273523 0.08682198325482116 1.171862237919039
0.6100581573853802 0.1113933743974257 1.241502845352848
0.02311020518059848 1.208064657278485 0.9510568986547197
0.8597960896283053 0.2058069551999777 0.4087299507773493
0.2916006498014637 1.692574653677224 0.8639459308871502
0.3476759800393325 1.745966194167868 0.8658068178294399
0.7631499355987192 1.532565001882578 0.1874259629037374
0.4137887151425946 0.9146075065223117 0.1943546366027463
0.7830509370706762 1.551108117195436 1.805737517592044
0.1034434285292107 0.8098682263362306 1.400045275932629
1.762677067471135 0.4214127541778862 1.289068313250711
1.789974047883389 0.4242247805787371 1.210769780497892
0.7628322919737368 0.06479543834944379 1.262952288709492
0.6863286340273318 0.08009178230789338 1.235327739952969
1.64085622153728 0.4586639890069717 1.54429645095216
1.345774297209008 1.768207028249422 0.4612068141319813
0.08542880540575237 0.7079873154358137 1.279800146661985
1.114596944875588 1.964190263209248 0.7608250085028496
1.054629354940734 1.997721634809723 1.039587536060903
0.04374117761840601 1.078599996880729 0.7182357277657145
0.05873026132500891 1.025450626700158 0.6633049678785219
0.7573724604066074 1.302528351382389 0.07825791370866086
0.5738028364120602 1.46260288933245 0.2225975659088375
0.5182124565997884 0.7594712305414336 1.842630805327658
0.7147987906974154 0.2029857632167886 0.4676198946455471
0.7866784850758 1.237748541433471 1.947612559180545
0.8401201153283937 1.30894099624036 1.937546736605385
0.8225158174826139 0.9490448494249872 0.01719638910613841
0.8701779593548576 1.010838105027085 0.008521924981619744
0.7971401958074148 1.020033312554016 0.02099715718949058
0.7074112597979504 1.027239981219513 0.04414969135845437
0.862017070400122 0.552328016156838 0.1165123056765517
0.792905970630186 0.4415920434866957 0.1966989249963559
1.740422514462944 0.4860400552940606 0.5668491310014045
0.7820252494683565 0.03444443812457976 1.142089637419867
1.062036749732724 0.06148591362273081 0.6603785175315922
1.697060258924873 0.5919537942990649 1.589580604701901
1.561139294423526 0.7432865641841515 0.2130940944906501
1.59207741246818 0.5445954104282157 0.3351308418628974
1.742353546543133 0.6022288781160576 0.4608438570042792
1.785770658509173 0.6062767395983055 0.5229816917090915
1.188700341705356 1.512855653050436 1.83747911029141
0.8932254055381503 1.119406814108596 0.01291277045949846
1.585793357461301 0.5963425968532462 1.70278506190658
1.356312665880146 0.4865279264851154 1.780632893141013
0.9707768396135061 1.128135845012336 0.008674013192431329
0.923265457257193 1.071060653190609 0.005483940040093449
1.527302677123509 0.5983270676186829 1.748739435378272
1.677731800037807 0.7330118456888776 0.3148745131911571
1.148905132901667 0.7216245643445467 0.05114048552002515
1.046678423527065 1.390001895571048 1.919630168180675
1.785067100512006 0.6678925035552219 0.4771479573542303
1.537990578903766 0.7912139403162151 1.816685079019147
1.376598456057616 0.6708955281093092 1.865946793675321
0.7226523045854381 1.926631096221457 1.253836694281286
1.906435999260271 1.067965692865698 1.416838630453465
0.1684798175038179 1.339896088282221 0.560631321926607
0.1859150361220409 0.5791758592442301 1.4002158344506
1.323628251050408 0.2000303736566054 0.4947145835767041
1.353177586753514 1.39670420176238 1.847284703343001
1.518027959581729 0.8695344486118373 0.1546445877664396
1.883750480376175 0.6697340561677227 0.6684739907949073
1.987745959108121 0.8639618104442552 0.9235046978699081
0.2758905367468572 0.3349907946609656 1.182833919286306
1.784038033303988 0.550098119482877 0.572363869346881
0.3022952732346665 0.2846387889771971 1.03829428173109
1.823188908292504 1.567518717862841 0.983191486100414
0.499029730479289 0.3277457939455551 1.545071620521977
0.8389455807045956 1.943211147165245 0.709458770759392
0.9172460874420401 0.008891515172834707 0.8958090154574301
1.514108364717579 0.1545065633750895 1.144337929705312
1.461859511463016 0.2527826460652191 1.477861923205698
1.418675799307679 0.2031484070977092 1.435589386880762
1.270863457271507 0.9348323710015545 1.960409375030069
0.3393308944242618 1.519107852065312 0.4577423390473009
1.980443462661483 0.9298180000708873 1.183861642030936
1.395496622234497 1.889782046716141 1.227750589774735
1.328897398842401 1.516366762873249 1.790690753224359
1.558292365115626 1.605313019257351 1.567367415147496
1.197065985876203 0.02421754225480266 0.9050600591564206
0.5310735100219008 1.169841538109776 1.866753597586607
0.6608568677078925 1.705173165530087 1.622665835288379
0.9410074654620471 1.992030796703199 1.111331842979467
0.6643314870636607 1.938808302436586 0.92276256931227
1.513593152392633 1.249744852068134 0.1791165839896245
1.742738016740924 1.563251794667642 0.6379397090380683
1.181550730473304 0.09223961030008676 1.378167168268837
0.2165358944284487 0.3785798016514611 0.9954248097928351
1.138624060609982 0.2295054915768046 1.622190953252856
0.5138949628071322 0.2343316347866815 0.5787472880475605
0.5261058440798265 0.2679253597739465 0.5106217719160357
0.4779579999939894 0.7069615254268506 1.800999751965983
0.5442099692089408 0.1464295981369195 1.252335128142683
0.9946155955644526 1.463515258851245 1.886072577727659
1.30711623162329 0.678774282755474 1.895820104069031
0.3914722562404587 1.769398954940776 0.8057855998877443
1.887079202704679 1.457349104727234 0.9373718550966935
0.8231927164733295 0.3881552370860071 1.770963793304614
0.8571420935997913 0.3344581821523998 1.732561060441422
1.916203921910625 1.134319981482608 1.377529490305195
0.9093470102435353 0.6106431822404494 1.916615134018837
0.1580119371118588 1.219716727585773 0.5072722236641467
0.9520292976483673 0.4769602096407667 0.1490427805013578
1.864313824767584 1.502948964055411 0.9980120686081879
1.597568112822065 1.317994976253799 1.73606490584433
0.9092503192090466 0.727697288058363 1.957922610916754
0.8905443472851572 1.582257367660579 0.1943972331888745
0.8394892523456928 0.01709121555859583 0.9098522249005756
1.915546194581071 0.8664156734575965 0.6206184067586663
1.703738117620214 0.2956579763523721 0.9069678790292148
0.680977758089949 1.928524592478786 1.1899128492988
1.320270976995155 1.946639713056663 0.9639478855187711
1.107386196368763 0.2732361530118184 1.678441239563448
1.00795880751639 0.07956876458726025 0.6091765126562955
0.295442376986144 0.688702799666949 0.362275444319517
1.682150081536998 1.366748378963942 0.3674125413933758
1.420277177485981 0.4171455464684427 1.695447898898865
0.2813937900807119 0.8660634551758508 1.682397330758265
1.811880583520558 1.552623803718348 1.188299892900081
1.699897591434944 0.8664725160580342 0.298349251738664
1.14257074547782 1.46308722966299 0.1252292870374799
1.026157807291045 1.881715354982539 0.5289439503564993
1.558609209843597 1.808453589520499 1.185360579059662
1.669675905996816 0.5200965365279326 1.566768777081851
0.2403265711260856 0.8474828240070321 1.632166744213961
0.8384365716765662 0.6168595547520797 1.909450745144345
0.3767950594257309 1.261062831904749 1.737198616277658
0.2134593638929674 0.9062493300974206 0.3896192666497721
1.768793725266542 0.7957896708403358 1.606015139625484
1.755010812734275 1.611458824486939 0.7631946398170434
1.608549547588468 1.607435873611451 0.489422770210261
1.943229361868537 1.132097895080047 1.304743362560192
0.231427911595443 0.5535695947039602 1.458254119624332
0.4357950924169197 1.250911054619648 1.786585319548251
1.727159427856897 1.24112635669576 0.357273583407793
1.386832840323648 0.1156926972520831 0.73854073366231
0.6786052821186463 1.415368374434129 0.1490155413652287
0.3465326996568 1.706294446952684 1.27226575544121
1.151049586128801 0.3190756865253462 1.716607355425123
1.173091900540316 0.01534741510522009 0.9776733113209879
0.8421884079247145 0.1642005739431794 0.474134217875176
0.1939860020630885 1.566462801092468 0.8283569689494168
0.6203281446639699 1.913876142709369 0.8561956952927325
1.018584063392594 1.994002784114042 1.107764083819021
1.723644911105272 1.616910470500885 0.6905496582360595
0.4386821634387941 1.816504100520994 1.135067909551637
0.02724161849846685 1.014552316882562 1.231364131385717
1.488568287033477 0.2287456126650462 1.40800453296717
1.978851769489283 0.7991228686854445 0.9613012728564041
1.140088769165229 0.4131761968745081 0.2024957925884623
0.02430217410185709 1.055907263339998 0.7881318087973816
1.270254004081228 0.2147294251110201 0.4429426443429771
0.9169617168775883 1.560069044116101 1.824273807274597
0.5587846289087958 0.6076546151627404 0.1929101070452228
0.03380143050841722 1.140835303253753 1.215929946209048
1.663461574991278 0.7997222118486 0.2790925537329531
1.799685729678457 0.8650245884250909 1.58505074311449
0.08760189929218931 0.5985250396445707 0.9203284113853256
0.682314227839627 1.802765921320027 1.504621269601348
1.823529435356459 0.6711128310403147 0.5377960415626506
1.372741833202906 0.8680938252972016 1.918511996032611
0.3278723634553469 1.737749096000143 0.9369864177825891
0.4577055169971774 0.983537785836096 1.840027195517814
0.747215029659255 0.4014940983417549 0.2398089421401487
0.4730558571754752 0.3235867491873666 0.4854176601669932
0.6681984185058532 1.731310671426014 0.4041036899120658
0.6893925728199835 1.68722494565449 0.3433076060659797
0.4887391268569425 1.835573541551502 1.201070077963081
1.352770649823387 1.929842510202893 0.8953779428477544
0.2504162476270517 0.3401932990752491 1.052719214649753
1.50056741694629 1.070491533641188 0.1371771880758876
0.1418317508526554 1.270537553614884 0.5637011480195542
1.883206185936173 0.8679681596336788 0.5499839711148495
1.568502299900505 1.68223910609012 1.459733550145288
1.85363576515359 0.7970004333315183 0.5203155658320218
0.4786621527856665 1.627129040275767 1.578719289383653
1.482828368935552 1.697313021071456 0.4702535353631574
1.212459613020655 0.4834165505158734 1.829459132540112
1.30810174469787 1.456872876414929 1.834470185033879
0.3938231005806784 1.245666972759398 0.2435627553421165
0.462561004216541 1.262099871625123 0.1984621137429866
1.680950171992322 1.298261943763312 0.3311602014187868
0.9355181140168356 0.07407715850673713 0.6278320567524709
1.057870767839067 0.06162273860624035 1.340733164703503
0.172187355419225 0.8875501325798186 0.4503808111161264
1.611425191126213 1.13420808117644 0.2201619228306353
1.868815228562379 1.477166314137906 0.8678167663047006
0.2693712820737877 0.4858653738308356 1.44927415095395
0.6111327101522963 1.901683336462272 1.189075095220833
1.047057455018708 1.845338478310799 0.4678454613419665
0.1730788260848561 1.022930384657587 1.561850130898139
0.5966428722570188 1.721076881517017 0.4366607075299768
1.513649069093117 1.136707438102163 1.847039379360439
0.3672055760546082 1.577657009166912 1.515639017902989
0.5758706456180769 0.6153501970719167 1.819852925748856
0.9200682679587802 1.431939977988721 1.898353367905967
1.856728143583476 0.6723880774492543 0.6016442341391107
0.137939514566203 0.5742643013339612 0.725043941083332
1.307313079056624 0.8732984333878848 1.943135931061251
0.923742070858515 0.1222933597088869 1.473091726657673
1.96098594522103 1.065899153855441 1.268632303732778
0.771084373594215 0.1621512653934712 0.5044123347928384
0.063379455661982 1.316290392700062 1.150672968410379
0.1143946848431145 1.413082351033621 1.212288004914102
1.053214634933824 0.371824673958458 1.776249935511406
0.3986494140044982 1.534257873209139 0.4059074166117594
0.4128259290489564 0.3424382301549661 0.5279416039926357
1.02880786090461 0.0239348326312544 1.215561815263101
0.1698605709831483 0.8127360439560745 0.4748326560434718
1.06005110538425 1.98326168772243 1.172018365878089
0.8385960175854108 1.530254623666042 0.1676666602006771
0.506998675515969 1.858801927437168 0.8606840156794778
1.843379482463143 0.8676494740337103 1.520763273317779
1.529450401197009 0.4899679061671754 0.3220991695440761
1.339249612863852 0.2468596732470638 0.4363606220372752
1.803682618445425 1.553612669593603 0.7818091182607541
1.223970327476338 0.02609564556943644 1.03670968307312
1.259588952634093 1.512977329174719 1.81821014135924
0.04069682121822982 1.241392623583591 1.146516253223394
1.813032005281648 0.4869762834433733 0.7247081101119608
0.6669819095929909 0.9678262509005123 0.05762862876117025
0.9514876659152122 1.385429056081433 0.07853866268311538
0.3024775446772937 1.686017942662961 1.206982624065552
0.2380161851939887 0.3643105435419711 1.123610601979661
1.189816515124288 1.72097037646965 1.666461857002546
1.978965115364725 1.064995894447536 1.193398129783863
1.991152558381901 1.064439059004831 0.8839646015752763
1.975472418297673 1.214897869727232 1.04767039675928
1.600703745505619 0.2451927253552516 0.7365213703563647
0.7582923852550947 0.1288293788854714 0.5726369483901832
0.6795364507279893 0.8471021023702558 1.934839743746697
1.605754990477964 0.8044659018470931 0.2287495167129093
0.1125623670129348 1.343854774581306 1.306950063619401
1.536275714146253 1.135855903000962 0.1669624666098652
0.8816618814814432 0.4597168180187149 0.1668792566658386
1.016175630229046 1.06450960544564 0.002214021048631332
0.54519188025146 0.1096043033278111 0.9814237366931557
1.0691775575815 1.129983850146896 1.989099926310809
0.5523202883181875 0.4994597362432825 0.2590261002526169
1.312343947168969 0.4346356178537254 1.763416252163438
0.5412427632057015 1.267476659435233 0.1526523533128634
0.4436220935562218 1.59858523968958 0.4236846904280549
1.388634255421258 1.851464826605026 1.352095249282972
1.934820708504761 1.315133181350784 1.163711089918767
1.555030726527495 0.2595339135862454 1.379013017562009
0.08738062534948876 1.392086983610188 0.8842689570773089
1.666820635364104 1.531808678639976 1.522043838749022
0.3140685118084584 1.520727533964348 1.50827239633758
1.654026283037844 1.752771727075439 1.074728495311775
0.9753834337830712 0.3743421492173492 1.77970909858852
1.385490588592191 1.906342622389542 0.8269680464570341
1.917960027463982 0.6087194671951344 0.934816162844874
1.84354615810521 0.5459996179646781 1.286903350028755
0.1313359175442591 1.318548688206801 0.6205932985659687
0.3114339642065488 0.4217529305408447 1.437615288825231
1.165218733078613 1.367599364023401 0.08480959477850225
1.544436778927042 1.200660616898235 1.814446996788353
0.5114778921838334 0.6375568261440714 1.793713484766443
1.415639973619113 1.736931273090112 0.4669186637372402
0.7883451471317887 1.474463370200252 0.1455488699781863
1.921205041006433 0.6113447479215115 1.018120912122257
0.07891820833184748 0.825863585424741 0.6517402662146259
0.7339297443978932 0.05912729019740959 0.7903212861720104
1.858482281265247 0.7355136760631009 0.5606195757615461
1.542379557667079 0.8093920933992472 0.1817744556870995
1.47816833523577 0.8071021851511058 0.1431771033612754
0.4980402463328669 0.412102282072718 1.634360054664798
1.756464709265785 0.3581355508852018 0.8744166707003331
0.7405860015417651 1.099327511338767 0.03935520461767028
1.606593534863727 1.195075954384151 1.770707243694154
0.5294933319994546 1.154232932314615 0.131187202006865
1.94128044709387 1.060022673426911 0.6677525040072521
1.465948768310719 0.1207744962512215 1.099268619751816
0.5395647134316488 0.1708378218738315 1.317000677046261
0.4923902519205903 0.1470879885827479 0.878043268185248
1.021972537670391 1.970858367702139 1.238644583955013
0.8047744371048451 0.6806829110079642 1.927320643720349
0.7209167917192091 0.04792018705145384 0.8748736932872949
0.977307229469884 0.9276459935413901 0.002879176872203293
1.275821048503147 0.04350903094237868 1.095119794542657
1.43241556080563 0.1202170585410015 0.8025189662501617
0.5299681219647743 1.705084643856333 0.469033260336708
0.3682575761446304 0.4011227288116606 0.5078135272527793
0.07227069287933852 0.8184533800621153 1.326127517236045
1.821792462242288 1.274702634702434 1.49919496340538
0.3725794892863284 1.706022055184228 0.67155463113444
1.883103608983828 1.383348577082088 1.270503020775881
1.98044154964075 1.127166639607002 1.150209898172885
1.26210686687869 0.7958901248061339 1.943206843265771
1.099160753575897 1.870697266391894 0.5182807713533291
1.882508461914572 1.127539882988001 0.547327499292718
1.915748599603729 0.8720242857422349 1.380823737290659
0.1207601828279691 1.462533078346114 0.8859802853232777
1.410825253190701 0.2817905022719557 0.4383971788585579
1.224989679614329 1.877970772740372 0.5774518177997729
0.9288235646402511 0.3270065755074695 1.736215841747036
0.08473493637421114 0.94872475049816 1.399575665043061
0.6322367222091048 1.888810967840723 0.7265676775607297
1.310684638786017 1.689846435414968 0.3460986689356995
1.787041713926639 1.398000739213735 1.471339317397498
1.380849194960136 1.691953494376305 1.613314154670049
1.983240277851941 0.8663710762476409 1.124023653979488
0.8140277666972855 0.09874585062235675 0.6086494069635495
0.7310074199845831 1.783101151455104 1.560709887986952
1.560513701316711 1.797995444799511 0.7785780934155982
1.839870118956256 0.6260744638051614 1.393443613070294
1.265120059601758 1.504393523775088 0.178234505974782
1.883782869330077 0.8700344519305405 1.449485034449092
0.03312519839501582 0.7753629656853103 0.878792241025488
0.1905243952859161 0.428394211035043 1.134223944937248
0.03604032238029553 1.24188616016737 0.8892172150431259
1.845709790115715 1.493856500760105 0.797810218954029
0.8760401466105497 0.6701013740611794 1.935842321842384
0.6469849681758557 0.114351202728337 1.301672993815249
0.7655477300044126 1.931253861876787 0.7210763942698886
1.41653379147585 1.877424726428688 0.7620389737576869
1.366655694178283 1.71837626088629 0.4088154689763313
0.1467142393601593 0.4987150608648399 1.143585585925423
0.2649757386080499 1.460556222358094 1.497621644638233
0.9306784133366773 1.00230476464231 0.002408297106264556
0.09813006287606596 1.296605000627479 0.6859043296782892
0.1715590484903122 1.088661257608151 1.553014259545868
1.165903912569832 0.4204946451750341 1.797903149212492
0.2483280034301506 0.7141984446819718 0.4056039362929023
1.414428296263169 0.5745018963650774 0.1955122430642641
0.4134585066199579 0.266816145499564 1.344108285345461
1.118982503268129 0.7848695618562964 0.03068990591238152
1.938716030128065 0.6765055930028689 1.119010854220023
1.846135433411486 1.123441624353811 0.4815243557287876
1.03186178178649 1.975318148831684 0.7815066696191212
1.121926070917281 0.365495524864676 1.763241838648748
0.01890314087084954 0.8685333872550409 1.142005220820514
0.5601818520420532 1.019283975453079 0.1021202056970172
1.9892290145194 1.130058458998377 0.9328378523575672
1.793185516905041 0.6160592789687049 1.472701024439394
0.2128799775087216 1.600560602642403 1.140602392394735
0.9089869147496902 1.256874855434882 1.96214963854825
1.203425391161181 1.886390718687123 1.415848054048888
0.9419674429962196 1.830812001014839 1.553519323327851
0.4900548385895974 1.65479553264734 0.442148099600615
0.9794804109141892 1.659234458205512 1.751657419026936
1.325580325917687 0.06640698761711405 1.14967143550184
1.860817708370548 1.441916699614727 0.74760645103865
1.98879102544165 1.130446252428725 1.072636652134801
0.4031451108071546 1.791536220857723 0.8687191852673417
0.1599506410311071 1.530676351400504 0.8873071228506387
0.3143066403590408 0.4244400431902667 0.5544044965874633
1.61779385866385 0.2949164317788755 1.348120539500038
1.744227467344704 0.3716876530654397 1.226603335234221
0.6055928933670034 1.416116710020355 1.819322841057921
1.211330142719503 1.567925805108628 1.795487178193258
0.9628737075093045 0.09141170906243379 1.416039608663704
0.5930153559498805 0.4353381636892358 0.2820024302815828
0.9876892810863047 1.953252845652423 1.301922934629659
1.477948877218697 0.3222508302976755 0.4412326658320149
1.171487213337083 1.855928374399439 0.5121693392581642
1.629285155268712 1.256513868018002 1.733621720556906
1.459140553864476 0.4451874232953035 0.3061895384708315
0.868715997768174 0.07258538682277627 0.6497620151620697
0.1096074267948606 0.5723478874811521 0.8440681679729982
0.9555921569044543 1.067669179578304 1.996719030422717
0.3362717826666731 0.2874034539673602 0.7726874044451654
0.4013280662439078 0.993550676600429 1.800968365143361
0.009314800301094661 0.9533330936266967 0.87207410368856
1.180300549072565 1.669089711973489 1.720978965945169
0.7383142917525212 1.431819512025812 0.1368357635230683
0.3265112661053723 0.7368122841540274 0.3092430589962988
1.811138120303335 1.189758265423924 0.4467850774842791
1.76505774894518 1.184376416596331 0.3829975868912419
1.455039141704518 1.863547310686641 1.217314108429905
1.175604583275099 0.5463296631541992 0.1263031098836415
1.867044602094423 0.5045687204854177 0.9472600222083158
1.915517829482441 1.19404949214044 0.6476196678306279
1.31079383373368 0.5459586414733579 0.1649828518764404
0.6639866437761777 1.409030291502728 1.848403939802495
0.250814070773046 0.39617284254689 0.7277625900607292
0.2067671466197812 0.4822733744534384 0.6794679711503906
0.4364193800704923 0.697981098528242 0.2311297456698794
0.550080405850365 1.87154674366886 1.194881072453007
0.7969242904808078 1.35508794723319 0.08749092830098615
0.1748138140048275 0.7498386323342975 0.493554495952066
0.3528599538640627 0.3679723595963468 1.426322439537221
0.8913051276624633 0.2838993061655508 1.689481849664911
1.72762051429819 1.620252480437124 1.293010661382881
1.066946284047591 1.90756295634936 1.414545142674027
1.896011306933675 0.5970015955085815 1.186429675278313
1.484085759697795 0.4233183982059371 1.658102809149181
1.292028129254508 0.7412054740012288 1.920730669108607
0.7470849654559757 0.05354256783715317 1.200629794410763
1.480029236402807 1.845578184058466 0.7663989151503702
1.018682853402233 0.5553194375752644 0.1045056402241433
0.2510073158460683 1.629987440417361 1.205245667433616
0.2046205830072924 1.59587041902494 0.8890494400402451
1.40155230893411 0.6576125747786601 0.1505727846130746
0.9067784173386152 1.373952365979838 1.922750976430905
1.75414810989376 1.123298361881489 0.3549743088054474
0.3265355620142282 1.00324782114138 1.73921248800757
1.198105111980325 1.911928209782017 0.6406376413548176
1.597733618020296 1.798942479463149 1.066373461546331
0.220596416608613 1.397394920720024 1.484362809454433
1.92194777275629 0.8139746145517256 1.339715852262646
1.793797500552978 0.4403269552943024 0.7619840107352053
1.323717153666048 1.263984091837538 0.09141890638256045
1.716078485919531 0.5495566601491162 1.533228280933386
0.3629109655163344 0.7565236334897932 1.731325386604115
0.09241368506069825 1.336504519448295 0.7488988464268422
1.336564883071195 1.636310108568841 0.3058577053540229
1.531855017955461 0.5448949998134587 1.71414961925412
1.701494306391993 0.306251558997458 0.8368471921597465
1.474896604619749 0.1901261492783818 0.6556490731274682
1.444949221234053 0.1417630683032256 0.7441688846232419
0.01900870748048289 1.163764585233269 0.8958979124884499
0.7114178527378383 1.741318500538858 1.605943252326799
1.616382193217104 1.67110248498861 1.411939857900381
1.54232306176683 1.833394499964568 0.8935138313927199
0.9129802427124616 0.01746761603791191 1.164492177040106
0.4561836429189194 0.8729478108090407 0.1704691018455989
0.4760930820827093 1.684044201507532 0.4924519020404782
0.1683749260591324 1.51675126626913 1.203390917206491
1.821498601429205 0.611104591341717 0.5829863203989971
0.03818382552181609 0.7640849448737167 1.138757822399008
0.6986240280381169 1.31621106976797 1.899546042668315
1.645413915194561 0.2882146143537369 0.7228674633796535
0.6637175811638099 0.06443320861693846 0.8921625591787152
1.817623541725759 1.518594033439605 1.250103923393191
1.395809866166066 0.09062330906652083 1.12793976642341
0.6997906119606512 0.9883174440867679 1.953801782982383
1.809816931784901 0.4268204749393834 0.8748530102408597
1.030609837503604 1.930796817905665 1.364253101050205
0.1215626860511311 0.529476412821407 1.083399276800733
1.951227686971153 0.8350860288013795 1.260709166779787
0.45620593105902 0.6593826531399136 1.766986201702878
0.268043047467031 0.4484712451657764 0.5999311906313368
1.67599754800745 0.3333069939256754 1.3139231605656
1.536599945417406 0.3650788344270364 0.4441802341716286
0.005940408483896209 0.8967260631504153 0.9656485446825789
1.188895767983677 1.525737694527421 0.1705916172410307
1.89303590360356 1.381818324121944 0.7618789336499538
0.1173143685280729 1.090859750935245 1.461097149907685
1.148358401650552 1.20000325579977 0.0315019451082077
1.749835396186188 1.449258085971149 1.485709842206067
0.5934632335053796 1.881035680612106 1.241875974367983
1.376063515773266 0.443910437698566 1.741175168771627
1.961362600584004 1.047636424930794 0.7288677053204964
0.2858424107221229 0.8087940386138368 1.673364105077783
0.2140553785098722 0.9164292531429049 1.612623034353498
0.7986778678600941 1.717912563690634 1.666386486962171
0.1096542201576607 0.7833067455596318 0.5995896782087425
0.4290281006712834 0.5811128427754774 1.706062773193231
1.446605814522738 0.7543378873139669 0.1396550849658511
0.766119197844634 0.7480287149234741 1.939047518435594
1.451911739898371 1.241023814853841 0.1411150833695306
1.906604167160539 1.140439674975546 0.6020733964913779
1.567835546360825 1.644478400408998 1.512064823723874
1.253213991726474 0.6831059460561548 1.914035465925136
1.423639666652301 0.09417751475609215 1.003880472300833
1.619693645935711 1.586373825283046 1.521675686811101
0.5957116717778729 0.9785059297299622 0.08562100165927677
0.9247622717284217 0.245532309825467 1.652010574091584
0.8072243589995997 0.3906003951535714 0.2309293440457493
0.6373575599434479 0.3816802600460417 0.3027402493667805
0.4983773350712898 0.1372262434571172 0.9367849143740096
0.7598030702384754 1.292682421506615 1.925549801509439
0.4214852470469964 1.755376105771552 0.6922214766343651
0.06984923357342532 1.310388140557579 0.8038399787997969
0.9747221499025825 1.516018141093439 1.856204594916965
1.607553502619983 0.4334450579897724 0.4433185478768146
1.990684620022524 0.8814227802584327 1.066958394613277
1.643434391387997 0.5434232644782402 1.614434592580407
0.9674604156473784 1.978265380308408 0.7952122534422444
0.3889813550775444 0.2159613040439894 0.8907318033427635
0.8551589860040455 1.065702405971698 0.01272887487065955
0.02166872070476256 0.9597312230321599 1.20309193374937
0.85607525440091 0.05181548324977658 0.7167478335486512
1.221131682348684 1.349595275309065 0.08956937521674968
1.215870342140012 0.4903676705064393 0.1671285308528567
0.1863231305236973 1.338536484541766 1.472570630396501
0.4763711029484047 0.3776703417525129 1.581823490964481
0.2506254787505117 1.653761976376258 0.8949614111542377
0.04079107844003271 1.204868729494874 1.194800021752875
1.678140355992407 1.253840447108577 1.689703331140432
1.517318040880849 1.69427810021664 1.500359834657792
0.06940718116410882 0.7681947796516509 1.283307863198895
1.341143816054564 1.847153534841172 1.40737180213392
1.708058873538446 1.117547439166475 0.303698893330715
1.102708954638273 1.945611698320171 0.6913426063786009
0.726304391784276 1.903273195756876 0.6695635494220027
1.875363303175864 0.5886140720125101 1.253969891339331
0.1202216819205771 1.393522722399229 1.26670203972381
1.086797217373636 1.617642466923249 1.781654671903877
0.06378001818079559 0.7305428219852634 0.7744230178879432
1.816183460871585 0.5626850590852954 0.6223755825526489
1.4181398134715 1.548529083887037 0.2759316741356053
0.3891526669060986 0.7800773620804974 0.2394084085512149
0.9996967898834578 0.06669496500965222 1.359084418661254
0.1344074085544242 0.5516638897960842 0.7769659265453936
0.008823709801000224 1.091871941965209 0.9044536341513225
0.4439644532061482 1.718643536491456 0.5824165494650015
0.5771908028696286 1.840995877815633 1.337577126474949
1.203006605647684 0.5923259000122559 1.890275320483831
0.5177208151874555 1.353858659738372 1.801368103198967
0.02354116554069807 1.069638517019725 1.204153426504859
0.1012756811317957 0.8805408349776335 1.421929030249213
0.982836982672795 1.881394659024255 1.472068730038056
1.982130495754417 1.186454280603326 0.974416987005456
0.895774972961548 0.506808341522953 0.136345478939933
1.064972052660327 1.441436866360487 0.1050630606624078
0.1032656371506949 0.5586718597911016 1.033120313177953
0.607987826866036 1.896025380154798 0.7915174486120317
0.5711834809674801 1.124948867405111 0.1052910118150078
1.164286245170253 1.615931652443106 1.770479220463839
1.465675066774317 1.701631729657901 1.539314053332562
0.5576334616124838 1.889194425680178 0.8831876759312433
0.1354496084304554 1.258809760689253 1.430778514098509
0.9940502460074436 1.110992973414505 1.993803381097104
1.727751423711257 0.3750223900825908 1.282455044897699
0.5888660250884961 0.1362686316016645 1.291439492722255
1.189188663480116 1.132071717320685 0.02698164914808898
1.12761021908464 1.328541710821622 0.06417096848004789
0.9691176220434345 1.607254859245647 1.79390667880696
1.977937752692693 0.7919815440478262 1.019133056254529
0.4812683728489026 0.6989872064488638 0.1998070250797525
1.427452311277435 0.5251081179924639 0.2307391716804246
1.954466905940555 1.283660709570656 1.092355440067899
0.7681118513814762 0.9754523698488868 1.972432671388738
0.3741459292124505 0.7038202616111424 1.721515242144309
0.2837115268009146 0.7461445204807853 0.3500090626168756
1.898578434080783 1.331666895725497 0.7126781106759514
1.904689924692316 1.369972453268115 1.21132090285389
1.62717349752499 1.774441126675566 0.9169678055465706
1.560202830050505 1.818014465653002 1.130480355555305
0.854344900888979 0.02619240690945457 1.174594856001422
0.8707739967017527 1.357742806309225 0.07516448781117746
1.656777513030076 1.658259984569512 1.36788189829424
0.7092386022451808 0.3749861469780938 0.2755584957317982
1.612974478814373 0.9195668311539161 -2.03599796034826
1.978416209772842 0.9318715425876307 -1.44509032201613
1.093531159466258 0.9288174037417917 -2.243068456954926
1.731250485075813 1.067099001038133 -0.5711992544670613
1.101944615149675 0.9414992714306343 -0.2569315430450738
1.978516247268796 1.067982497931963 -1.055361016736308
1.274231055416508 1.069041908865116 -0.2908177737961315
1.936020843287466 1.067982497931966 -1.595316320069513
1.554284928995983 1.067982497931412 -2.079546018894023
1.117265476320056 1.067982497931973 -2.240771006862009
1.960228609621606 0.9320175020674388 -0.9791875238490542
1.681195405384909 0.9348959099582499 -0.5207988774403013
1.275224255524664 0.9288319376835922 -0.2912577426247331
1.415134175264431 0.9349430315242739 -2.157431103379353
1.829546018897934 0.9320175020661741 -1.804284928989835
1.783500111060096 1.067982497931386 -1.867661684050278
1.554284928995997 1.06798249793067 -0.4204539811059252
1.42474689449977 1.079697100612924 -2.151797342958325
1.870477499669326 1.067982497931961 -0.7625091769639453
1.039168988720025 1.067982497930477 -0.2530826662667646
1.996782307228197 1.069880211037722 -1.289265609662352
1.829789644461553 0.9320152157155194 -0.6960801366170718
1.99688807938685 0.93298191175689 -1.20849418083406
1.487365518773359 0.9323168882072332 -0.379429010655178
1.277327157378146 0.9268720954609662 -2.207988495420632
1.732110518799328 0.9355466979295315 -1.928129751681485
1.205336679326126 1.07092044897058 -0.2738815963003611
1.870477499669324 1.067982497931967 -1.737490823036057
1.678985720725366 1.069740420442988 -1.980831488653499
1.417691174044986 1.067982497931967 -0.3439578028039471
1.936020843287468 1.067982497931967 -0.9046836799304911
1.98017912148548 1.069061022828855 -1.435686469431095
1.274333490785267 1.072004170184258 -2.208935104847896
1.906174183531177 0.9321654772418388 -0.8325711717864019
1.900684639631185 0.9389059152773953 -1.680156590957699
1.172937852964595 0.921382218670606 -2.231790070977925
1.227551466654165 0.8593484982424612 -2.213554609286307
1.313511886605318 0.8526234729018087 -2.18807806509781
1.149842205403535 0.8448768227809347 -2.22646511118896
1.183631246893218 0.9212373561795453 -0.270165314401019
1.240115556777634 0.8558122930338125 -0.2900237375053487
1.308149150594692 0.8607597131212912 -0.3089068890392913
1.271368785736246 0.789835992600182 -0.3107502610478485
1.193888003471291 0.7888249193975723 -0.2919746728595978
1.340081681349046 0.7962883868158269 -0.3319335379915528
1.302108697580412 0.7269967718081799 -0.3366547354679543
1.373222745411308 0.7317135000434509 -0.3618968887292923
1.412755103088961 0.7995554949644624 -0.3614870708452915
1.445790153439484 0.7349087107947967 -0.3950159372924403
1.482890683363399 0.8042668360241154 -0.3964748882189706
1.513385865038264 0.7411302580211576 -0.4318182290794293
1.550823043959778 0.8098883731092846 -0.437318301200372
1.578909869917103 0.7479460616349707 -0.4745438924947193
1.613837544144342 0.8178879006544606 -0.4818602648796225
1.640849815306932 0.7561138912682503 -0.5221050349200401
1.60403918296697 0.6869376412999441 -0.5171094044772083
1.332599915325454 0.6642607728910852 -0.3687188486607642
1.664057377584322 0.6959652392211918 -0.5669255798128541
1.625289168732376 0.627741609806528 -0.564115792282299
1.683948106423705 0.6359337261535339 -0.6178048276307563
1.56337324456405 0.6197719500978233 -0.5164897973600078
1.256810843665797 0.6638048054445234 -0.3438979187015037
1.720685885606194 0.7066471780311776 -0.621863091252437
1.737098512464417 0.64992458382953 -0.6719576261935328
1.771809838916516 0.7200236701131901 -0.6791034881392476
1.786492386432764 0.6603238199700118 -0.7341998266736127
1.818931533836078 0.732729486987963 -0.7421440994108943
1.830623117575979 0.6799554957876418 -0.7943282410859462
1.79609300531678 0.6097728676023689 -0.7874432877728192
1.584509842451375 0.5579037791761658 -0.569633058114408
1.838577699850591 0.6279471771492178 -0.8520500806356951
1.520713939554206 0.5535925303790843 -0.5222793364067572
1.288017844724408 0.6011103402413015 -0.3794066618346449
1.698507785908791 0.5757698576861969 -0.6737052322142694
1.869727145032637 0.6950029116310941 -0.8619903747587327
1.874643208286113 0.6457665393655796 -0.9190650916480121
1.834476097426261 0.5662328465388015 -0.9101534178450426
1.872280293919339 0.5931518073491312 -0.9787037837036563
1.836611608179139 0.5273693237759871 -0.9730500750100359
1.539944989441765 0.4942960871913324 -0.5771530924892824
1.86680109805615 0.5472545178763089 -1.041008648922402
1.827980987792006 0.4813739978871676 -1.036752365107056
1.200950560892218 0.7831472510753903 -2.205297732312258
1.856741027971047 0.5048740251932776 -1.105621746572393
1.8142939455258 0.4390078603790579 -1.100959101037523
1.840303997256997 0.463730711864387 -1.170599478613582
1.79534912022767 0.3996878440104369 -1.166064951752958
1.818921447545107 0.4262624096090813 -1.236113311300083
1.771419531648517 0.3639341425832791 -1.231775532383241
1.74540865735175 0.3392405447788038 -1.161892815952108
1.719146284610287 0.305495875505346 -1.227804451096358
1.690865821505193 0.2828873311242375 -1.158055251298206
1.662417316389228 0.2513129354611913 -1.224096750397783
1.632057276541334 0.230976041397414 -1.154575945032922
1.601618662854966 0.2017481458082305 -1.2208630512235
1.569346016263748 0.1838270963215202 -1.151476373058849
1.53708847724794 0.1570857747601255 -1.217881835423676
1.503120153417303 0.1417250708620666 -1.148835494175946
1.567591994879168 0.1775346791890726 -1.287284358817945
1.501364655291496 0.1354452546843726 -1.28433037687923
1.530221161184665 0.1585019906607278 -1.353665908137766
1.46240449968172 0.1190497787025986 -1.350542460036334
1.489725522042765 0.1447619164894788 -1.419519124505739
1.420439045515872 0.1079898801352304 -1.415978778958461
1.446355035449008 0.1363992668293932 -1.484437531117578
1.375730478056017 0.1023373889086521 -1.480279057902495
1.348585431270757 0.07669074239552676 -1.411208597561223
1.30294983259245 0.07371798316990608 -1.474104940216365
1.274634094501318 0.05104573569188331 -1.405119045861178
1.228084776629825 0.05095546948856744 -1.467466810746048
1.198963953870121 0.0312489605782269 -1.398103911763339
1.151614010593738 0.03423290499809373 -1.460492541443303
1.122119624345058 0.0173868043987484 -1.389850295602543
1.074320168344409 0.02340795332856527 -1.451852636731248
1.044549523881033 0.009556791328645731 -1.380528120796881
0.9965665672487151 0.01861447718720088 -1.442017361592621
0.9665008708211917 0.008024478988886585 -1.371911336876403
0.9188061504902062 0.01991157518767195 -1.431202202940997
0.8888552039898799 0.01239635365088354 -1.360841652991094
0.8415188916811662 0.0272912410340248 -1.41947391698107
0.8122790697570258 0.02256877661331846 -1.346897140811933
1.121966994749179 0.7721117246789636 -2.216018108610319
0.8577491650051411 0.01099206219267002 -1.290348468339675
0.7835715375737842 0.02400188882480825 -1.274215855018605
0.7365244261689203 0.03901580028434593 -1.334202077713362
0.7089433316824452 0.04335611771213843 -1.260885692862318
0.6650466505290168 0.06038171167785855 -1.320169266269062
0.6362741518592533 0.0684969761920603 -1.247628496055364
0.590887863897376 0.08999228564795803 -1.317180502478922
0.5650157650096266 0.09966924547333922 -1.236098641674528
0.5202739227242241 0.1236697675360696 -1.293683114029452
0.4967414678790403 0.1363395452119878 -1.221338725031488
0.4539491208676772 0.1628366375664678 -1.281399713339453
0.431655278454851 0.1782792035426674 -1.208057060650285
0.3907079544649716 0.2072670901345974 -1.26837761856369
0.3701791861555914 0.2252235342431924 -1.194798817424288
0.4814804898802745 0.1502960098076958 -1.345606729242645
1.212427955711105 0.6006226567318208 -0.3581636353475758
0.4130236422683834 0.1986724011426979 -1.134532105008726
0.3533937089369087 0.2480728915224131 -1.121524601988676
0.3125086616954463 0.2769869070807227 -1.182119758224398
0.2977936345618833 0.302107073625707 -1.109103997022925
0.2590725520630691 0.3332061263271118 -1.169922244499667
0.2465666087671032 0.3604414232481978 -1.097346955881954
0.2101523897905822 0.3935571085669934 -1.158524472798205
0.2000288286809456 0.422715873540087 -1.086326048511576
0.2382763597208409 0.3918714895060896 -1.026489797628107
0.1937998183172179 0.4564617349712942 -1.016317691075611
0.1583790414640917 0.4885524496713366 -1.076519265000669
0.1556057785823247 0.5230501630305414 -1.006038421362615
0.1927812760238025 0.4925493016354887 -0.9485174625428379
0.1576001069282156 0.5606755308775435 -0.9379800791889756
0.1215515938604042 0.5934294327734027 -0.9989446841513878
0.1266249435577286 0.6323534533280281 -0.9305441697125678
0.1652777819546934 0.6006862915786915 -0.870806934440586
0.1368856888303208 0.6736842790712692 -0.8645759009495477
0.1782834224547504 0.6431900381563648 -0.8056257013322379
0.1523676501043786 0.7171895711695414 -0.8010705392211834
0.1962968672926004 0.6876707295063014 -0.7435301575916032
0.1725992083057973 0.7626389096579969 -0.7410131212934248
0.2183558134166275 0.7346210100841167 -0.6855477369239774
0.197018936700021 0.8135608245825811 -0.6839065043199065
0.1541075351520212 0.8392057463506152 -0.7414617557088274
0.1815154979838618 0.8910275776193459 -0.6859006017377022
0.2471361041705475 0.6666023600831039 -0.6825125833515399
0.7568387669302253 0.03118584689452064 -1.202337105894629
0.09305172180539989 0.666355214479369 -0.9928502814025604
0.2467079015758722 0.7848280704442774 -0.6285082018376741
0.8715463013024557 0.03806838867887052 -1.491220277821032
1.183423781840906 0.05595113019546127 -1.524093866542017
1.170013998371881 0.7143456840674884 -2.193131407676966
1.092911007280778 0.7010031169913007 -2.199720173881314
1.140900917223834 0.6405537885757371 -2.172466992698507
1.063525939838745 0.6292632126159814 -2.176562836211221
1.020647079815163 0.6720187470563928 -2.194458572840889
1.110379090121853 0.5760864979503258 -2.148951499939709
1.032654306725208 0.5649766777439083 -2.149826875207431
1.185781216166412 0.5858489492412717 -2.141046714193577
1.242862365018965 0.53916052929734 -0.3963930331236236
1.166569653999252 0.5400007682461114 -0.3778444765109826
1.196372015042731 0.4799601536999605 -0.4187379534898225
1.117440349260385 0.4807773252095724 -0.403468501265858
1.148833743298353 0.4238746280017311 -0.4463034947222576
1.071566496181232 0.4279162965893656 -0.4329330058579559
1.041956799164212 0.4880372517030894 -0.3920176159383176
1.100499736095633 0.3705647107882902 -0.4794735437769322
1.023153486288848 0.3763262976346344 -0.4686581868026327
1.051791803009044 0.3224115078231291 -0.5163846754527637
0.9741434019736805 0.3303144282416597 -0.5078055030403351
1.792548985963308 0.3923962604748658 -1.301805410563041
1.079738367704989 0.5105698594094515 -2.118389273423653
1.001840105741211 0.5008871260607669 -2.116535027035249
1.002887122588213 0.2776601911111742 -0.5584677411590871
0.9252741798193693 0.2877119985218339 -0.5521018306740072
1.077075133577678 0.269179238728662 -0.5717961673075231
0.2250214096912156 0.3682873231676711 -1.231364590362886
1.400377404298254 0.1334656598582546 -1.548020421250797
1.469694850231429 0.1701983689330061 -1.551356932464863
1.09199623074381 0.006606873011050562 -1.318606040404971
0.3981347778826323 0.2239218960285634 -1.061689004724334
0.8966857295419846 0.3424996055438866 -0.5036626816179005
0.8480913501026425 0.3020117353052223 -0.5501884936393694
0.8198968906399209 0.3588918271256955 -0.5039817826134524
0.7718150419064611 0.3204711368082509 -0.552739540064705
1.419646588793519 0.1687048376609576 -1.614479208715214
1.487412586817448 0.2077851859293631 -1.617184774437816
1.030790592288872 0.2277149655555232 -0.6154704380412259
1.048798228027569 0.448006336869105 -2.082419202568457
0.9708217965003617 0.4399462096013558 -2.077942259037818
0.9239058764911335 0.4944620473240248 -2.109442297522993
0.8934394160027824 0.4331776171022672 -2.0669193523135
0.7442508618406349 0.3793899125407513 -0.5087608363864159
1.104582685010324 0.2231478147666751 -0.6290626889176015
0.6969160682249622 0.3429762629845325 -0.5597392237001917
0.7246640957502977 0.28772502969074 -0.6043572919160772
0.9401761401467691 0.3823867637394921 -2.034203415057652
0.862661871891419 0.3794320108224161 -2.022032129756088
1.059031119125472 0.1848337010535952 -0.6737888997625826
1.438159950922265 0.2097482758082688 -1.678390090711485
1.504381707791079 0.2515462534663535 -1.680599677363445
1.533680305789435 0.17099531131104 -1.082857673391161
1.46589360940964 0.1315666921376598 -1.080392410233117
1.457673100381876 0.2573910551267793 -1.738945076855389
1.522397331408687 0.3012615513026201 -1.738738793681309
1.385254262457899 0.217508440361757 -1.739168797403238
0.9099571679161276 0.3278322896442804 -1.984903298091296
0.8329288299783875 0.3276038018509083 -1.971089853528849
1.494952452864391 0.1635131297647033 -1.014815422853707
0.670259538055978 0.4019994117683868 -0.5194751720635447
0.6190960990824017 0.3639344141409379 -0.5789316065023442
1.22190632957537 0.4239353992786483 -0.4632934748649045
0.7180726724459134 0.4410542693101939 -0.4701944780127231
0.6453606814674704 0.4684181172155301 -0.4808110403508764
0.6942319825055934 0.5075584269800726 -0.4351336203774266
1.472207348849552 0.3070756685280992 -1.794863368695948
1.535283075403405 0.3536960867423583 -1.793841227652456
1.584272995038352 0.3506150163272934 -1.73674861093722
1.595414196862827 0.4043057789804887 -1.789101409030019
1.642902452200662 0.402668384700871 -1.729449036205631
1.837583142612547 0.4565757924333106 -1.306076820896033
1.425641707171131 0.1266540296372465 -1.01315415737745
1.453279417905615 0.1612399576080579 -0.9483058492615173
0.6221137899486688 0.5355955377609205 -0.4490440038894318
0.6727828219825863 0.5776786978122073 -0.4046754255738644
1.544705385192811 0.4105857285804019 -1.846562536528113
0.6018783000361437 0.6048003022258461 -0.4221616637911079
0.652395115527397 0.64841616420074 -0.3807706570211362
0.5833562083617636 0.6799462373203946 -0.3991336533368236
0.6351023212839577 0.7231117522802872 -0.3610778536101427
0.567299109994343 0.7549631831770774 -0.3824016492698931
0.618336861831848 0.7994374207791902 -0.3477207190786578
0.8807559555890689 0.2788103536515742 -1.932397502832738
0.8034101450447991 0.28026219938396 -1.915830254113673
0.7567677766179919 0.3309442847403151 -1.952283799746937
0.8464167248465744 0.4913342823728833 -2.097154865006415
0.728007751302985 0.2846450066650295 -1.893651652805666
0.6819254047421706 0.3381664010712109 -1.928826074322823
0.6536860202656745 0.2968009365871001 -1.87094903547376
0.6090246016643783 0.3501007240937268 -1.901743177235331
0.5818940265335291 0.3110441315780652 -1.842053381308335
0.5385045399126321 0.3661147755111963 -1.870654060240911
0.5157405116322924 0.3272256711052433 -1.809345555364531
0.4712796277323542 0.3861736294420857 -1.836235408992719
0.4977394245366359 0.4276309330928232 -1.89817278991255
0.4314560140976144 0.449024266019756 -1.860887450075019
0.4597709108891218 0.4923935695133107 -1.921184209444019
0.3949630807876986 0.5155952823241385 -1.881887961495909
0.4252806360114227 0.560320421823904 -1.940202521866919
0.3628480442427946 0.5852851368926382 -1.899652959350306
0.39448148998626 0.6309922137738337 -1.955110337277226
0.3339672241604225 0.6571667712998583 -1.912469409713734
0.3675635795287636 0.7039727260597965 -1.965815637678489
0.3043455209875516 0.6126291308809519 -1.854986492070585
0.2775667545532798 0.6856379904886833 -1.865846354904635
0.2499079652200764 0.6421212492902204 -1.80613374214313
0.2253723869170775 0.7162133999856872 -1.815170086524199
0.2003492583523645 0.6737137903025842 -1.754079359569186
0.1784721830515543 0.748754371885525 -1.761827783862193
0.2060153919731992 0.7920442238853395 -1.821264244808895
0.1610436877883911 0.8250493398419234 -1.765310171363375
0.1914167729311061 0.8691579345337505 -1.823649299491753
0.1363728738839177 0.7826450576201036 -1.704868130406504
0.1218214030389303 0.8596156834999871 -1.707268625121286
0.1410447707292255 0.9161717087527599 -0.744857711436709
0.1711683282917739 0.9649003757657939 -0.6916040147422579
0.09930788533461499 0.8178090844907824 -1.644411187576506
0.08784456534964191 0.8953191213443482 -1.646250396443584
0.1328266103476817 0.9939299445070041 -0.7520306568620709
0.1661801210892484 1.04187885553252 -0.6995542070352923
0.2060320036804133 1.013904839918577 -0.642199476598531
0.2046096030381305 1.089735438680811 -0.650582226268188
0.06853112511281467 0.8537132388855208 -1.583115473430816
0.05945175148208126 0.9316954618915038 -1.582721328266855
0.1298514928626321 1.071697759759439 -0.7624540977794112
0.08180533618774211 0.9735997510006338 -1.645248764956282
0.05634993922653508 1.010163079284552 -1.580788867136867
0.08150972975398862 1.052051706112467 -1.642002861410718
0.05886099494601205 1.088478264850561 -1.576234531916876
0.08695957066875859 1.13019074457722 -1.636532721038015
0.06717315584659356 1.166279741228733 -1.569664083818783
0.09812121996847689 1.20753455575954 -1.628872108097894
0.04250385494501718 1.126545738305929 -1.509205147173922
0.05317870047531048 1.201828971933333 -1.500588293530867
0.03152996759013016 1.161652796917693 -1.439563101822883
0.04519615614948558 1.236232157291302 -1.430399522254855
0.02583824479836705 1.191918780601457 -1.369063245188948
0.04318132797498242 1.268746372222378 -1.360785451579135
0.06523996183940139 1.311072289665829 -1.421632460974184
0.066371943161463 1.343330935450271 -1.35228646169821
0.09117189188541508 1.384522159074711 -1.411784359816969
0.0951655509746111 1.415665510172678 -1.342178107540827
0.122802522882376 1.455721047128589 -1.401138722180975
0.1295914097857099 1.485504820551596 -1.33169427949578
0.1598682980899648 1.524042515558477 -1.389850510663675
0.1693694280215837 1.552311349742791 -1.320746207248907
0.2019898990262334 1.588994778659105 -1.377534424592541
0.21371055895071 1.615355568446094 -1.305555731268514
0.2482906868594885 1.649937386497839 -1.361868235751615
0.2631089241859479 1.674735580980952 -1.291514312518768
0.3003732043708065 1.707714160427089 -1.348300630560578
0.3171101136492332 1.73000385899178 -1.277491252735111
0.3570987019618357 1.760957700450993 -1.337300052148784
0.3754384059408601 1.780848713609133 -1.264074859902281
0.4174197376407056 1.809406761051499 -1.323898126319256
0.4375484179009476 1.826830200122515 -1.250194832323253
0.4809738296266044 1.852793839563687 -1.307918059961906
0.5029988667463701 1.867632018546495 -1.235697764596324
0.5479588288236323 1.890948607515569 -1.293236076690267
0.5715219602903495 1.903094675613774 -1.221249758877057
0.6182201581707509 1.923740708745111 -1.280777514193228
0.6427380524496802 1.933019502242032 -1.207122158769554
0.6910519304865649 1.950889543344569 -1.268978058432804
0.7161578589610544 1.957191845076088 -1.193277776046235
0.7654057540297117 1.972079266618652 -1.255238240904673
0.7913309098644495 1.975442776271574 -1.179511695710524
0.8402302832080342 1.987055828957286 -1.236056251663886
0.8674758050338136 1.987502228314638 -1.16469650170017
0.9165143528825995 1.99604570500476 -1.219617434819301
0.3395142266211194 1.735208096747273 -1.402406028887817
0.6697733574120636 1.939514272240218 -1.340902677529505
0.9444035775898497 1.993469033413449 -1.150359057292001
0.9942512191400276 1.999132096062912 -1.208744622949782
1.021907341501534 1.993407922513426 -1.137479922343198
1.072041188476221 1.996034257434355 -1.197790564261547
1.040330314031146 1.999011774722568 -1.268679928688711
0.7431722881972495 1.957638424185965 -1.119738052475851
1.120626921385561 1.992660538888674 -1.25861396368051
1.089300318412175 1.992733511275889 -1.330657477776882
1.146358077751868 1.987256088288633 -1.187512167473935
1.169567710595748 1.983089902657209 -1.319145027418864
1.141990492119192 1.979650542166407 -1.391857376899529
1.22102145461103 1.966975442651948 -1.376917334945603
1.19091857571502 1.960681861584828 -1.451594787305766
0.4611337657074244 1.839342729413728 -1.178397177990999
1.268885194165669 1.945161588726795 -1.435392350311258
1.23779996748162 1.936059928598089 -1.509312524839585
1.312802018211024 1.917850418964951 -1.494347101085679
1.340705739588833 1.924199487827796 -1.422554066049069
1.28217549536283 1.90549716988169 -1.566941422273881
1.356297111565452 1.884572997235388 -1.550970066372254
1.325092448628781 1.869466830439277 -1.621943988539162
1.250116302106173 1.887774060970469 -1.63639235511166
1.292145298428817 1.849031046783229 -1.690224268077205
1.216332055891217 1.864657149544123 -1.703396576228925
1.398079406442766 1.845712022574041 -1.605392685687114
1.257576109361643 1.823268693452296 -1.755848995518889
1.18103128886056 1.836289123975956 -1.767540504282528
0.2235848147335022 1.629439230176598 -1.218603891924612
1.22159825860414 1.792338787722396 -1.818413104400502
1.144431893834221 1.802845084966806 -1.828428212994579
1.297403371639672 1.776824323720995 -1.805063243795492
1.260757668596987 1.743784463308161 -1.86545926787177
1.335568010263472 1.725610716689114 -1.850735547736044
1.297868620621767 1.689990632744381 -1.909687207374748
0.19548930588907 1.559279388973586 -1.449922755409387
0.9718650962485302 1.984686919608649 -1.077953211182175
1.371938943890193 1.670290458346582 -1.892162069471078
1.333101236604037 1.632224554627637 -1.949525323843782
1.259123385590483 1.651509065297939 -1.963015433826458
0.1020684468265889 1.439119549237868 -1.279882223690967
1.103362502504404 1.844265069238629 -1.775863752258625
1.066380584170033 1.808278365680798 -1.835046751651202
0.09905514086242262 1.023678011225568 -0.8167128982095444
1.4065553981848 1.610022795127407 -1.930135940552875
1.365816130658895 1.572527923992229 -1.983750866983408
0.2485807229859274 1.059695051278103 -0.5928808548029109
0.2478778514837419 1.137204300772341 -0.6054169924975833
0.2934217277387493 1.106934169338775 -0.5504914377964113
0.2952864326100273 1.184070081322719 -0.5648014936543234
0.2510443054945314 1.213909313647992 -0.6228571349345701
0.3017562612651179 1.26001495045906 -0.5830308051676554
0.3479652441451642 1.229481022731511 -0.5273734454343487
0.3557483528728087 1.304995556545665 -0.5486316761777013
0.4042977044802382 1.273389266726818 -0.4947536269858297
0.4143342208087714 1.347763656743272 -0.5178415238946703
0.3680227833074676 1.378114990086024 -0.5735135981752434
0.4277046896230442 1.420372095221631 -0.5458939147546583
0.4762468535629479 1.388473653112955 -0.4918635594865767
0.4917524735099064 1.459472138293765 -0.5215977718674545
0.541443897196908 1.42662659830747 -0.4704385552128452
0.5584419839997309 1.496257201784545 -0.5025006299782723
0.6095229251112377 1.461986994532158 -0.4536987562050027
0.6278054348914802 1.530138344456926 -0.4881440152888806
0.6800637217536858 1.494336580908662 -0.4417474883197511
0.6994146825744512 1.560906436076258 -0.4786165435294765
0.7526308763857865 1.523475680683051 -0.4346585203635522
0.7728277213313848 1.58837156161278 -0.473977022704967
0.8267764706412699 1.549224433724002 -0.4324756087571122
0.847591411604155 1.612364193485878 -0.4742540901045137
0.9020428432873832 1.571423906703584 -0.4352122274503667
0.9232442769827023 1.632736237967511 -0.4794460355388381
0.9779654151236531 1.589937074108084 -0.4428514847550544
0.9994671636738407 1.650458552626758 -0.4904584360285786
1.054051105087106 1.605395432381119 -0.4559125687363257
1.075347067722207 1.662138705785876 -0.504416232951742
1.129903480327685 1.615470863469005 -0.4726193326178785
1.150858143629089 1.670987643360196 -0.5240403572107359
1.204981141003742 1.622333878954434 -0.4945641821184731
1.225386490750354 1.675854142233904 -0.5482720554142692
1.279730789984196 1.625241455885979 -0.5214234378073916
1.298215023796917 1.67992975613543 -0.5801020030606014
1.351764586113944 1.625412206457799 -0.5534935406116656
1.369663808930059 1.673544437547105 -0.6099323793405307
1.330440185124706 1.570600326256252 -0.498185826330064
0.6485003665016164 1.594052254572133 -0.5264325003924875
0.3836954701056324 1.449129466064069 -0.6031217663696773
1.421118671886479 1.618873779512441 -0.5869356673590762
1.438522233005071 1.666382490561905 -0.6469804087488047
0.6614494396717679 1.429771814807883 -0.4129338704151391
1.488650057543593 1.60972776634638 -0.6259381663577737
1.505450458530518 1.655326599613102 -0.6886918120935545
0.8717918940652731 1.67161271183886 -0.5202746771085148
1.553672791098815 1.596935304632543 -0.6693842212959574
1.567556102839676 1.640265168850599 -0.7323702252708465
1.51760377086427 1.69677169810324 -0.7534161328542621
1.578565525767966 1.679807234381937 -0.7993071373154228
1.627045876261225 1.621161838855464 -0.7799240071929957
1.63628691762001 1.658760150279978 -0.8485351536326915
1.585838591538731 1.715274714140691 -0.8689813285744803
1.641580780280148 1.692042046780901 -0.9191648327906816
1.690028405967074 1.633447911386186 -0.8998506853940492
1.693294929722578 1.664678161705873 -0.9715308243767977
1.317545902537165 1.72654737094429 -0.6406614097598959
1.025049158312915 1.847147297980744 -1.780767364475001
0.9879260987419537 1.808605093118098 -1.838227867660044
1.739580770993806 1.604063307881294 -0.9531367263407009
1.740816182833971 1.633328402728243 -1.026199826744937
1.100813385583692 1.724986306882879 -0.5686546278725613
0.4476466551839707 0.3484763516215197 -1.770021843843256
0.9465746428175353 1.844918019740576 -1.782221073547064
0.9095526952715504 1.803823250565063 -1.837951925686425
1.589518127347094 1.746418085252464 -0.9412469926669194
0.4277630750338707 0.6793132513863835 -2.004787990742391
0.4049272146967242 0.7527580869560717 -2.014695898135841
0.4691510816149539 0.7284876249990873 -2.052795401127081
0.4458275038590646 0.8032217279597502 -2.058808479291469
0.04199809030570167 0.8985669446349633 -1.518223183750754
0.5117263319076688 0.7796741721363069 -2.094420129215214
0.4900119913307907 0.8550521639122169 -2.097881097694178
0.8684233373745753 1.837590994664882 -1.780215906502859
0.8317441310045262 1.793962353787133 -1.834220628972799
0.8732728522271687 1.757728088063974 -1.890147150721049
0.7959196569330189 1.745471827341032 -1.884525782151116
0.8379590498176794 1.706917053105642 -1.93848457534824
0.7611056556536877 1.692836828175108 -1.930372414023086
0.8038292613229202 1.651703775125854 -1.98266583841039
0.727712766524179 1.635130504808684 -1.972820105107453
0.771094151735098 1.592429056260102 -2.022418232519722
0.6957513549658088 1.573960786893324 -2.010264281091552
0.653131974246012 1.615189648077886 -1.957971941257093
0.739955777437161 1.52945876775394 -2.057496387335676
0.6223035031963375 1.551790929845487 -1.993553714295406
0.5806412769831479 1.59133499686629 -1.938811427685996
0.5512039508667311 1.526056327827622 -1.972389677552833
0.7910776283368761 1.82521144857425 -1.774764240169473
0.8160533725469321 1.546195164853593 -2.067211404802453
0.7856003924780226 1.481564375916602 -2.099781477876799
0.8623129196534948 1.496714207757403 -2.106923137578622
0.5108604142710664 1.563947754427395 -1.915361101920773
0.4828915576164815 1.496915826821044 -1.946902805181935
0.5244159593176277 1.458026710855698 -2.001020207711443
0.4569438504346767 1.428131169017575 -1.972352905811924
0.4985211447319422 1.391655878931529 -2.021443212568113
0.4333899774557004 1.363103681432185 -1.989668032892285
1.443672769376609 1.646203286688863 -1.870947490522509
1.476344381002918 1.584195765721866 -1.907123533286998
1.512456886725498 1.618040142006431 -1.846166354398066
0.0989386565591539 1.101268167948913 -0.8282972450684625
0.08343249968977517 0.7801679227455665 -1.584032745677825
1.784664195847498 1.570792306976366 -1.008135901689403
1.783389128404838 1.598256806377853 -1.081505884020595
1.737526507761847 1.658340900314398 -1.099527712445643
1.777453857771908 1.621897899394482 -1.156146381186934
0.5574518484175501 0.8320684856178568 -2.130880321047234
0.4177471170347882 1.4648742725636 -1.916988373952023
1.544677022607275 1.556935056848355 -1.87701697225593
1.578790472880359 1.587102791695471 -1.815961041491652
1.108368328138175 1.557516110599088 -0.4269373706217717
0.07104865827281137 1.053025112676926 -0.8836153085500766
1.821217233851504 1.559558848741715 -1.138213821873495
1.812953240643807 1.581161018028295 -1.213136743889771
1.767531864518413 1.640699709098738 -1.230032032910675
1.799813463779278 1.599040518246607 -1.288064164987942
0.5372079498259472 0.9079294731611794 -2.131672578899514
0.6060453919068522 0.8853471632700803 -2.161950927293764
0.8321560418341956 1.431943899695862 -2.136144950458314
0.5871240638483486 0.9615272722556029 -2.159974346103671
0.9095872575274462 1.44429160454565 -2.141308311488703
1.781152481922438 1.539618286615335 -0.9359730827831048
1.066785863859344 1.985623484346191 -1.405196634930773
1.535636212126724 1.549257940242502 -0.608587836614319
0.1207093482759029 1.170924208340336 -1.694559180305437
1.6515294524125 0.4586734433671241 -1.781483707862303
1.697583197840039 0.4578581474522679 -1.718465467038264
0.7054591804228143 0.6926124085818796 -0.3451472085223108
1.843228572877388 1.537166054607855 -1.270450028366604
1.827592872984332 1.553191094572041 -1.345234707285355
1.781313827334776 1.613767573067278 -1.363305204940408
1.806868106638609 1.565759735463996 -1.419940519644775
1.608366002165964 1.521641696607838 -1.84814776415924
0.567342976324254 0.2687827561978081 -1.77737959974801
1.794167143494081 0.4614726655896687 -0.9684207779551989
0.07363242064035624 1.130407557732602 -0.8966772342495148
0.8816465273423214 1.506554188080821 -0.3959535668081925
0.4712697854841107 0.9312790396671695 -2.096003421901422
0.9582422917803262 0.2819204374798094 -1.944707158229316
0.6572070203327924 0.9391813442137916 -2.187440165663514
1.758032605199741 1.624685704955157 -1.437494905207507
1.230483804803307 1.132920792755683 -0.2860449810408205
0.9291544917892827 0.2343885368520676 -1.889390335759658
0.6394522278320486 1.015514730550074 -2.182611707582896
0.880076090239262 1.376800094921408 -2.168498744873893
1.564815227588857 1.486216655149721 -1.916766168112004
0.04860650138007594 1.081881335152802 -0.9531063191353935
1.850728612182261 1.503285839478578 -1.401539408058722
1.82737426748495 1.514377667639929 -1.47553810440156
0.1346206111075109 1.247683787993501 -1.685627426185786
0.5422986574268811 1.626353216131098 -1.881023874072126
0.2274462727681638 0.6007756588294715 -1.743741495073237
0.82828246732494 1.866273200520643 -1.719130931650975
0.7515243568689933 1.851282488419012 -1.71214497690851
1.382611870677438 0.1270238569486678 -0.9474759347094319
1.408959205573844 0.1642522134804979 -0.8835603658115525
1.478295704253495 0.2010532728212525 -0.885421686844895
1.432605825419038 0.2065890270623479 -0.8218046849443108
0.9575845868788888 1.389250932005942 -2.170154685181938
1.703470468980704 0.5163622603597779 -1.770791547615516
1.747566355252352 0.5169186644148624 -1.705825589128116
0.9873008026523659 1.455455691589994 -2.140167873709789
1.035383213117403 1.399111034869283 -2.166219629824126
0.5537248720535751 0.8314727056538375 -0.3711160137784032
0.6088020744189657 0.8765895076000951 -0.3380054641683928
1.353660393343608 0.09499514391129082 -1.013588205379048
0.1599020083801098 1.210427230174318 -1.749955743318738
1.633796248286004 1.452620746456125 -1.877245387018578
1.00681465497425 0.2397890130756305 -1.899640528166969
0.9778257002122893 0.1946125436500824 -1.842333812628601
0.0540889870119986 1.158936067189077 -0.9671719920968183
0.08200516615500808 1.207015626395781 -0.9117249411176342
0.7106209402329624 0.993238738744347 -2.207190704674141
1.309559917616585 0.09824805312320706 -0.9483112801095694
0.5427172810750154 0.9090025522490455 -0.365346407074845
0.5991042936247412 0.9544503384144783 -0.3350093656548573
0.6628468557670569 0.9221011512528123 -0.311778530037975
0.65501971085719 1.000201348938014 -0.3113900919116885
1.500536154013163 0.2458482289030566 -0.8248898205440683
1.868610283251609 1.450329652383402 -1.456686671108236
1.843689567279772 1.459049730853428 -1.528318627954842
0.8040516945956019 1.366627477341547 -2.159499067876003
1.891172138932537 0.5687729181358198 -1.109090728987373
0.5705632152006421 1.037896099139322 -2.152301464883668
0.6275806102721091 0.8099224047242979 -2.158391053417476
0.5408740346643458 0.5706356633531057 -0.4722792182470781
0.8514974923629948 1.306921992168264 -2.190077601025036
1.678694545124645 0.3972627366357232 -1.669620668902514
1.279650572263146 0.06914684355463674 -1.014823558644581
1.234574469491616 0.07509016383079492 -0.9508067293200241
0.2992318101528716 1.032891010700804 -0.5373695729808763
0.01448245583119279 1.120503285566191 -1.369306866119416
1.597439351819212 1.41549432673744 -1.935879497686614
0.5235344191861981 0.7028150126955882 -2.077442828007254
0.1764460379772759 1.286479618118314 -1.739579717757444
1.751555886305891 0.5767148489313018 -1.755957933670099
1.793153795529348 0.5788393563051625 -1.689921321192711
1.705030094357254 0.5777274071228955 -1.819752949404783
1.452250098629556 0.2521256790356388 -0.7640433678488868
0.7293516246186227 0.9170096763713438 -2.2090943973809
1.203871308508947 0.04885371880705836 -1.018143921063761
1.1594819615245 0.05753376722850778 -0.9561924030359163
1.126856402525823 0.03437963266832722 -1.023097467329138
1.08066354639909 0.04616433538115627 -0.9607061749994468
0.7893778533185825 1.889692828164029 -1.655074046120958
0.7133284578634806 1.872014550688898 -1.646749354524881
1.544714997864123 0.2427100122409515 -0.8897258744486525
1.565341880345934 0.2898381998720339 -0.8304064157235832
0.9155207482705274 1.717393140026823 -1.941527540065964
0.06533906729739725 1.234979211645297 -0.98317850353831
0.0949424457154886 1.28202604258133 -0.931672912339442
0.3254966993356452 1.405957219960489 -0.6333606946075834
0.3429643780106273 1.475819347963097 -0.6652777244357699
1.055509574273084 0.2024298537740875 -1.850666753710573
1.084281473359003 0.2492062390279902 -1.90513766624576
0.03199196045905128 1.110038091772975 -1.024496000605197
0.02947247899075578 1.032687091316698 -1.011236759477291
1.065064411291984 1.463996589108203 -2.133444275367259
1.112991759502767 1.406319542352035 -2.156717867799737
0.4890349122601162 0.8642863818934163 -0.4011793517053245
0.5916873969329015 1.032571210669965 -0.3377391083620526
0.6496005248092701 1.078560268041058 -0.3167002131836855
1.656336626898748 1.3813374008208 -1.901002318679749
1.692143127004569 1.415135054418148 -1.840424235896172
1.881232271639827 1.394479061546656 -1.510414963897585
1.904568752381192 1.383611265371373 -1.436004756110449
0.2868510364142918 1.431286352491826 -0.6973603001132416
0.3067983902597728 1.499413166619856 -0.7303289335932912
0.3650260258433748 1.54244114360959 -0.6999403142719313
0.3307127150375878 1.564594298773174 -0.7670012339762441
0.3909537550414702 1.605913331302956 -0.7382073599090464
0.3583605191898789 1.626410233793257 -0.8073839184295313
0.4207851718699168 1.665676471022365 -0.7794843054674496
0.3003960867091426 1.583102190670158 -0.8370276041382649
0.3303672985429487 1.642900544232692 -0.8781519996495346
0.2742297041712601 1.597974750772075 -0.9098769705948484
1.049081226278416 0.02581392595729248 -1.029653621839924
1.001397704197512 0.04013221103340758 -0.9695505854394388
0.2042956355807907 1.248455978981789 -1.802380476621344
1.363345480226472 0.1708243011903681 -0.8252086129609582
0.726198609796721 0.9683164069607237 -0.2887357550314933
1.02646915943092 0.15972789005051 -1.791518388275092
0.9522825239426386 0.1556576642048222 -1.783675053251188
0.3063885303260644 1.655733570480804 -0.9518111107347239
1.853829330443251 1.40156564150702 -1.581240864079125
0.6373927294781938 0.3936350565812918 -1.957698751417263
0.6908506336919443 0.06003041517009777 -1.394512452425488
0.09083151586078075 0.6285966127924398 -1.061659373955735
0.06503805143349128 0.7025880118545113 -1.056629205824497
0.06566465270544763 0.6658618688286734 -1.126027551071613
0.04375302339496534 0.7378587799839297 -1.120101191297932
0.0464517090562554 0.7045665834894763 -1.191137845374271
0.02534825763901039 0.7884593460486298 -1.177167776097982
1.025244883849925 0.03405260065137261 -1.507504014592059
0.3981009433020085 1.197346111994563 -0.4761963830359169
0.6115377827627718 0.08155205000617549 -1.175498530677054
1.530294068053328 0.2085170659695756 -1.553879855413358
1.319363814681624 0.0567520558744532 -1.341049820290493
0.1210239211355651 1.422807329271705 -1.470533478406864
0.1135879572349837 0.7480600423640613 -0.8616703099329741
1.061871844007869 1.8797854245318 -1.721327361502032
1.428036740110987 1.858024224745333 -1.533864367022931
1.468626665960228 1.81665626314241 -1.586840608925461
1.497199809112429 1.826383240096524 -1.514354100225692
1.536298776550893 1.782478897860203 -1.566402270335562
1.688645831763692 0.2761651683043376 -1.292779139993744
0.4688779945333853 1.837918255728482 -1.375707645058125
0.5975042242791369 1.909959730967505 -1.15014791667468
0.526201559918513 1.35605891587313 -0.4445578316206674
0.5102183060183864 0.7099145456827172 -0.4278295058602282
0.4795220175322037 0.9421662051968597 -0.3980857308713978
0.4740000113894948 1.59705788556345 -1.855678044234931
0.5065219670272103 1.658356263569576 -1.818371763190267
0.439921535405185 1.626923217480857 -1.791552760938918
0.4741943128279139 1.686037776479455 -1.752872298482046
0.4090058625667137 1.652859180669383 -1.723815174656941
0.2524385545354559 1.453567845394713 -0.764790669010829
1.049318154140959 1.981589566741917 -1.065474548813599
0.9991452908303019 1.969739170515225 -1.00585821611064
1.0764890412834 1.963614113874287 -0.993880367590029
1.02623401716187 1.948794752869702 -0.9351980094242215
1.103422720820495 1.939744017743463 -0.924139720227426
1.052964070974249 1.921982945398546 -0.8664087389159438
0.9756726997452854 1.928217459286071 -0.8787581236729498
1.002358546616498 1.89854947430665 -0.8111340985208562
0.925101088827325 1.901963985228354 -0.8247340567878341
1.129891797120867 1.909986628094195 -0.8562329905509241
1.179970715161991 1.92482063712608 -0.9148622211242183
0.8146143197193608 1.980863402936001 -1.309490623863709
1.721292263952227 1.680964541944038 -1.376588951246223
1.795472343825916 1.523159324264813 -1.555823595628079
0.3645246536167492 1.698803042584073 -0.9216017786066282
1.823817268424783 1.504667829246903 -0.9918614899548144
1.81786759348989 1.471900315680083 -0.9207543598161192
1.857998090535597 1.435442317850754 -0.9775495192479338
1.849461360781417 1.4012741281109 -0.9073712349375478
1.806756987172927 1.436384195629093 -0.8516132564293699
1.598522107250821 1.534420225849185 -0.6532032931262579
1.57919067626605 1.485346260255451 -0.5950365138555246
1.531774095568706 1.767424872941392 -0.8918444811635973
1.533651245291438 1.796282844685859 -0.9651316450395122
1.789837756481619 0.5230108010922767 -1.635535501039076
1.830554276060778 0.5841581743982811 -1.620479649370093
0.9818218699549028 0.190674135022277 -0.6629214704435836
1.908320462387546 0.6717390102737744 -0.9907729562101327
1.247147639781706 1.967645957980581 -1.300787244010437
0.2062464872701215 0.5724097659398319 -0.8174240497145625
0.7007937008207819 0.2440122229605469 -1.83220105762393
0.3833777412580766 0.8281776294301512 -2.018279937910503
1.126498065088069 0.4592967285926246 -2.081647889324765
1.095287318582183 0.3984200162290248 -2.043108977406971
1.172644782687103 0.4114737648653061 -2.03982950664628
1.24901421243988 0.726281775999889 -2.179015745750938
0.624110888226596 1.091801106467904 -2.172106247946228
0.3766494804431282 1.59168787220398 -1.76121384141561
0.1785168891987204 0.4305496616455349 -1.22013679829225
0.1958503869969197 0.4071341266178031 -1.293051783769794
1.135550181641568 0.6027895221850106 -0.3423381771987291
0.4450245812519058 1.709901906926569 -1.683637598839628
0.1902768145423627 1.171695207287802 -1.811131997596586
0.7426061859755693 0.5484512204607065 -0.395686167618403
1.886956031314071 1.363524480637727 -0.9651158998949517
1.89279905356329 1.396459295336739 -1.036154548569324
0.9518989171666885 1.869516525099413 -0.7584440027735346
0.8748313360068288 1.870196379398452 -0.7734592705381942
0.8483423544858282 1.899908133405142 -0.8411414547935063
0.7984999419020485 1.865407995097165 -0.7912334704793431
0.1518501735571987 0.4711955895192071 -1.28174535180317
0.1717395411544456 0.4495067560660061 -1.354603062555452
0.2182513012570692 0.3872067291577783 -1.365556822491041
0.1966290643821732 0.4313835496721926 -1.426834590001905
0.2455910111840333 0.3709156908505843 -1.437403333950261
0.1310114940850317 0.5138845402369416 -1.342470191775628
0.2263703159974472 0.4169329928824429 -1.498052367940894
0.2776758434058267 0.3582048253818131 -1.507578661067502
0.1838530353528254 0.4741697325514265 -1.489596873794641
1.83579402948362 1.364464904427558 -0.8393740464605969
0.5564650672552882 1.113982259858517 -2.138979644239782
1.6402585214346 1.468934319581605 -0.6415843282352792
1.619044611469647 1.418387219119992 -0.5853678431738095
1.556127035499083 1.433404055117218 -0.5408571050945004
1.594166843531416 1.365130093136941 -0.5333091481442482
1.529473544511142 1.378914221980903 -0.490999487455104
1.655211569803227 1.348903731664021 -0.5799522518305787
0.2371487603335577 1.209075363453493 -1.861837787764177
0.03255482637679863 0.7469752275111733 -1.255319825199329
0.01583355515161988 0.8227736205464659 -1.252686868119649
1.474334405194066 1.814824163423607 -0.9167306573502297
1.474539697012799 1.841174096365866 -0.9906966726745097
1.532227760189246 1.820090340990284 -1.039796660591756
1.471634718405514 1.862431793941487 -1.066228149072225
1.527729775616015 1.838744438907424 -1.11580219774474
0.2255575421060152 1.131726791466518 -1.868778580609462
0.2741503843620968 1.168137210258836 -1.91698741667642
0.7725561343456488 1.892394608514522 -0.860255018415351
0.7237780784162957 1.855589196080187 -0.812200299694638
0.750045632590751 1.825737816648037 -0.7443520272260808
0.04926290855921045 1.308139504847635 -1.28389732306484
0.01582750310663295 1.060612385696598 -1.083474821546884
1.615961087944122 1.344897156008839 -1.958263997331298
1.553752694323316 1.379918667860874 -1.990958675865589
0.08205331804540328 1.309553778958191 -1.001906576021754
1.205981044335162 1.892302554245537 -0.8482936880487366
1.750683198392264 0.6395542277964499 -1.803672810378248
1.702094251032723 0.6416058828943092 -1.865318876267283
1.104026481895051 0.1700735577526081 -1.798088123866158
0.2651026903902521 1.091070772743098 -1.922035756995362
0.6861944370865962 1.877203841139574 -0.8866276155586672
1.833796114040279 0.6434437463068847 -1.671487459082309
1.868191779881234 0.6493789156168071 -1.60115222985567
0.676508777910138 1.81301694274126 -0.7658957962933376
1.005348363286394 1.333553896877663 -2.192715860102015
1.465637400256759 1.87846604371398 -1.142858870998877
1.520203026337501 1.852128310738421 -1.192849729419799
1.408095464352648 1.89946595297973 -1.093733908332414
0.3170248195516127 1.127222380934767 -1.969276976331637
0.2607797191065383 0.4062442812814762 -1.567816806989248
1.712279491884017 1.342561152587924 -1.862625319570681
0.3477478767664951 1.615621479168953 -1.692241294004998
0.3137291630252935 1.540596565236994 -1.736608355838656
1.808726758622349 0.4244961028376645 -1.37147548822356
1.851170984303146 0.4903695640271258 -1.375637471363092
0.610315511019303 1.167881858253485 -2.155517355282167
1.155471286324864 1.875002968119521 -0.7915259168605919
0.1130551468229178 1.352814297352239 -0.9519213207783385
1.640471102229195 1.5514952308508 -1.784462138563755
0.22333933451126 1.323682580153203 -1.790395964074449
1.91440272975462 1.326523778412064 -1.489269450513033
1.934923908351657 1.314624993128859 -1.414098748597082
1.142398090139231 1.469861578692325 -2.121179017649906
1.189931189844606 1.410831960179783 -2.141708048421146
1.089697853312077 1.524339291231038 -2.096771871747366
1.160057233262074 1.346028476843533 -2.174470645988197
1.23729548964649 1.350668564536763 -2.155937309331699
1.193784728838147 0.08971580250898681 -0.884171954783032
0.1134843689692847 1.252633079649935 -0.8623576867719385
0.2523720266555927 1.608791878754487 -0.9846231701230933
0.1034968069456874 1.380163212928348 -1.022496249746477
0.4549594366974052 1.643367274045079 -0.7124041154895304
0.7519496328009813 1.907705320716555 -1.588440638924004
0.8287070867531454 1.922608932186191 -1.595617557600395
0.6767256942459829 1.887279667414 -1.578981025338788
1.607807115508662 0.2889653068907658 -0.8964463611669402
1.626622993211033 0.3382874133257424 -0.8383204194812324
0.1979600082447983 1.360764304271936 -1.726005218866875
1.249763903363871 0.04663830694940629 -1.080531788231101
0.3374698647671456 1.747654299879877 -1.204537182451303
1.010104841577907 0.1506730334037809 -0.7222295991729449
0.9332611177163568 0.1604817235990281 -0.7107829887881212
1.91905667620229 1.323371621973166 -1.024687727741158
1.921885616695224 1.355313916752197 -1.095471910991304
1.628405120780264 1.294544342734007 -0.5300342825241374
0.0473188211774167 0.7715658066857137 -1.049459752563071
0.9708246623799385 0.02305638600822613 -1.038505378897128
0.9246732778604614 0.04095944442916277 -0.9769302329035808
0.5865971648934687 1.110469925861613 -0.346177843043217
0.6460893544199465 1.156638593382831 -0.3279308019415473
0.7121886428115253 1.124085855108806 -0.3003856976460156
0.7108209389408388 1.200789258533042 -0.3140196880795553
0.7777833137291179 1.167875898897382 -0.2895639391858591
0.7721219091304291 1.25041887485724 -0.3090632524888436
0.8404135375442419 1.214923123052211 -0.2864958681052058
0.8460200123318092 1.133741205903963 -0.2710191762648987
1.473272316163387 0.4914477875000881 -0.5307031475706377
1.48908081659688 0.4358022056549022 -0.5848076942018529
1.610519850841136 1.612581740904924 -1.752005102004761
0.715969171616666 1.807875914714419 -1.766394224359856
1.478148117316279 1.677804241255085 -1.808530024657149
0.7033148814579256 1.780544903818919 -0.6997931356680561
0.6801038566076671 1.144988049640746 -2.186293182130514
1.136463079597036 0.1843588470810876 -0.6877657627180637
1.184221751044258 0.23361997824185 -0.634594435601883
0.31435669917622 0.3495547679464508 -1.576824515809748
0.3334415686825004 0.3036414785232381 -1.516053880269114
0.3721945633746028 0.2969389770605814 -1.584014268807446
1.205970322486792 1.283495537194079 -2.186593031495391
1.28298362736997 1.287181050327283 -2.165121473342994
1.311372687658749 1.350758975893672 -2.133184686353987
1.355687284371889 1.286266309197132 -2.139684301286025
1.572232275216776 1.306222247083739 -2.010774709484495
1.551393016881844 0.4448883102539307 -0.6272506500676194
0.021383531175444 1.137711069275879 -1.09720776085072
0.9018966430217439 1.835063302697336 -0.7086636795504899
0.2996448828047346 0.3993833905887764 -1.635697288450116
1.076570954943285 0.1300788818390175 -1.737210567451712
1.152395204471434 0.1426680062331213 -1.741688472630606
1.180912438398641 0.1856477536959643 -1.801453632295798
0.8388033015321965 1.291744029619749 -0.3071845113786521
0.9098833008514289 1.25251727013016 -0.2866132610313874
1.745504684346736 0.7045423856967239 -1.847434150151537
1.694681060403107 0.7076033998911777 -1.907208074023757
1.649114407569024 0.6456715308594569 -1.923128384368713
1.639626783066399 0.7126674054353983 -1.962963925093622
1.59207068433589 0.651726076614049 -1.976744507402283
1.580681673045933 0.7197031449223448 -2.014357552211105
1.531315181831756 0.6597321486742951 -2.025836301618631
1.518209567087318 0.7286671904823078 -2.061071729909513
1.467222911390071 0.6696403298247152 -2.070100749538654
1.478787070389615 0.6017405441103004 -2.032401653258843
1.413234432505726 0.6127735037196886 -2.074192298174489
1.423421566753241 0.5460862824950283 -2.034013082715491
0.4889388661673932 0.5339674696326886 -1.972239709601439
0.1811310926342736 1.093878238965942 -1.816251347723177
1.7149224487263 0.3187298433688596 -1.092656852735897
1.35178653997081 0.1357698491994477 -1.609656053393544
0.8230655995057246 1.923889866654759 -0.9107040639583466
1.922203114044873 1.370533049800048 -1.360664698308963
1.949690874289119 1.300389058776004 -1.338620859054938
0.1802874380530822 0.6334781255501595 -1.69015114601259
0.5673757315056973 1.418081115063399 -2.048776829619584
1.434804777771275 0.1054354601141017 -1.146563598254759
0.7357001935053251 0.8904341709228684 -0.2918032866965582
0.7963176250339199 0.9366705067146457 -0.2730133750104879
0.806541638689888 0.85905517134863 -0.2790682734014497
0.8932624097003331 1.559735044450369 -2.07176868207006
0.8682781701113569 0.3987816565773171 -0.4618465485307621
1.107124541640615 1.764371269985339 -1.885815141530373
0.4594426386179886 0.1770202160125618 -1.075351741481035
0.4464744056491271 0.2046745455238083 -1.002882947045834
0.5096282753133771 0.1602074125088691 -1.017010769298627
0.4981142174796995 0.1904496436438776 -0.945469407402703
0.561973184822508 0.1486530449506024 -0.9613118095356479
0.436589599559722 0.2373942435228674 -0.93219317052073
0.4898739224333732 0.2255962986999062 -0.8757403409406739
0.4300065362030125 0.2749135993048171 -0.8635324557538926
0.4849582531235302 0.2654304361089391 -0.8082539702732676
0.4267658493202384 0.3170010258847422 -0.7973246087404819
0.5464082037479743 0.2184425564087583 -0.8217215336489775
1.877470334237312 0.5241061182350125 -1.309756387375001
1.88838831272566 0.5594234273821206 -1.379067770852132
1.911960346602148 0.5945769198306665 -1.312932124477883
1.92010044438957 0.6311980345306164 -1.381910130392003
1.940844303106354 0.6675467078666437 -1.315473703591693
0.8774410934434227 0.5510329499161972 -2.1351033286361
0.800563925128939 0.5505446198537283 -2.120755484219075
0.8322710605944033 0.6127913185462295 -2.156607103376488
0.7557747032075744 0.6124316368406137 -2.138900876523702
0.7247524533511653 0.5514770621707369 -2.100332853831254
0.7795727678218916 0.6638821720920162 -2.165661859573018
1.746637404304068 1.375330793320196 -1.799235270243742
1.7641256431168 1.301568270839022 -1.820235547431497
0.07408066652218903 0.9753822783737851 -0.8730817652673983
1.163563016024602 1.948035076936683 -1.522904072315884
0.4274319002867678 0.8977488164035574 -0.4365441212678436
0.2351799714785692 1.384004189163857 -0.7327079097095278
0.6403870309497715 1.850533339998188 -1.633759755631576
1.250447630149493 1.219106705909237 -2.193010199296967
1.687837256189032 1.277524260232533 -0.579283820099195
1.709967816352332 1.333158447494462 -0.6295556845235971
1.743172311091956 1.273307388829673 -0.6392643884319931
1.255464163817405 1.9043314474771 -0.9080603940619826
1.279208732797864 1.871053040107822 -0.8458848124008048
1.228096098051947 1.932663068545525 -0.9705151692404026
1.580673658756792 1.809795983931063 -1.166044259069902
1.571437363860979 1.820618174908872 -1.243280610678992
0.3735789471672906 0.3286578680857936 -0.8538984896710843
0.3721901830272978 0.3728360079729279 -0.7890009101772879
0.4269141935352383 0.3630015117427893 -0.7344366339753551
0.3743357490382139 0.420848180408921 -0.7273840655579191
0.4313995715043432 0.4132303918285694 -0.6734629416586465
0.380520587646492 0.4728162002179624 -0.6683450344770322
1.946069537541988 0.7043453111506541 -1.382441440253743
1.561636904627776 1.79048929331909 -1.494316729897925
1.60287885202132 1.741386176925037 -1.544760286419208
0.3099367474678044 1.049073704752231 -1.972083429394816
0.5042650115894258 1.059842796007353 -2.116409638122517
0.490829458025564 1.135702438228473 -2.099900116157367
1.50215723302139 1.864439662116252 -1.274128486994446
1.910484739717007 1.28946311100343 -0.9546550387924835
0.8677721413407722 0.9056068479663809 -0.2632853876406038
0.8784989208883865 0.8283548067848844 -0.272362329172582
0.6037459788675004 1.862738124637578 -1.564110934278256
1.945424109930534 1.281053334120695 -1.085129518282686
1.017387949693094 0.01146020321550445 -1.100044241928698
0.2894849797451416 1.573263094883166 -1.658090467956815
0.3228323513120783 1.63583854995204 -1.6203421579639
0.02536124987993116 0.7882353076481898 -1.322353450764517
0.01148476499641116 0.8652201648508064 -1.318352221638771
0.004989659917512212 0.9002382115608483 -1.251417284852767
0.5429878261549798 0.2606171580439808 -0.7555782306790193
0.6047858027763255 0.2163800993172387 -0.77068216226935
1.727885536880455 1.270129490816915 -1.880248128431371
0.04539904413526719 0.7121928115760343 -1.326837733917851
0.008385199473797122 1.089060746625232 -1.156360954789494
1.869242447415886 0.7103330659555628 -1.650637785202215
1.900956014307164 0.7172566558886857 -1.579142008325434
0.3932735041977804 0.2531218954234081 -1.522132424006469
0.4339363093943591 0.248721677856073 -1.589341687469322
0.9087159747406842 1.327587962720271 -0.3095993654759482
0.9771339649287855 1.292374114439756 -0.2939693929346768
0.9786487020834347 1.363948094567956 -0.3188255230422
1.044632971041684 1.330256822212979 -0.3071647390568291
0.4865263806365498 1.701109626560819 -0.755237295502635
0.5216516405519417 1.676951815434414 -0.6906082887694863
0.6449274699271059 1.233704133029374 -0.3448448328642086
0.791929139516135 1.937757294665344 -1.52806073674548
0.8692692987777086 1.949827626920102 -1.53414250455934
0.2226960294129917 1.549338233002274 -0.9433633370394032
0.2031507292700806 1.558148899349591 -1.01869706899385
0.3693327331863965 0.4746720257235594 -1.82121739995598
0.7836300658756261 0.9712056215461633 -2.225886743109297
0.8031125665176442 0.8951491226160539 -2.224803381225438
1.755039845161381 0.785604316426763 -0.6303635557168689
1.671253402427715 1.576737389178132 -1.715610194962704
1.963942578437516 0.7425672534287873 -1.317402421826184
1.955734800999358 0.7057742166725438 -1.248523997268684
0.9550220548086525 0.06069696190212381 -0.9098723959063835
0.8786163595382165 0.06460056472562492 -0.9178947330790662
0.8471453048301617 0.04715505204977855 -0.9878512877577392
0.8015120798472177 0.07375396680008328 -0.929577105164376
0.7716832660844655 0.05905070437409976 -1.000028217441918
0.01634845759391101 0.9831284760702877 -1.070709747051293
1.421326002018209 0.4338836468184476 -0.5414827633121607
1.436206566358148 0.3798270050928472 -0.5979959449099056
0.979189921804165 1.831752067196093 -0.69524290057674
0.07401627201295258 1.334621391821011 -1.075121014301378
0.342669864721209 1.709520865569948 -0.996036942499035
0.4028739593835006 1.750392102290742 -0.9665353912084558
1.40075665675767 1.912760017747288 -1.170859289449832
1.341958794084007 1.930957947095521 -1.122009828938684
1.218824499614473 1.473014458887845 -2.103447807456035
0.4392453790775891 0.4667783586058912 -0.616573653639876
0.3901883372600716 0.5280011281390919 -0.6133314826784712
0.456895214215067 0.2071289247137296 -1.526392202552632
0.4992008383464994 0.2052004900204384 -1.592773888479563
0.5237058668091668 0.1662107976237522 -1.529176404247876
0.5675853070806851 0.1666440466488016 -1.594289686690743
1.452596072202155 0.7395042118400056 -2.102818116469207
1.819703693623332 0.4599316357945836 -1.440819329850916
1.774697137703154 0.3957469233787756 -1.436339915821397
1.384343731523902 1.350179287427865 -2.104198081650149
0.2839744013548045 1.243174768746771 -1.904349580827973
0.8334491894491691 0.09393325738688463 -0.8610219987771546
0.7569357684440201 0.1060121868953433 -0.873561997988441
0.7848199821041526 0.1286764772762602 -0.8089865323523157
1.79575539391795 1.333212572144668 -1.755710129239294
0.5341609389988538 1.343046530141297 -2.065667240609543
0.9407878137981431 0.0118884085134473 -1.108121884086697
1.776043714813733 1.404391037861342 -1.733966983580004
1.045590480385094 1.255182009671085 -0.2841823929755253
1.11295020742745 1.292160968196465 -0.3003241504046761
1.111749434960281 1.366274946609682 -0.3262279895601231
1.179719799697398 1.327162656835322 -0.322279465803855
1.178069082526795 1.400206166946116 -0.3510414771601736
1.245487124090958 1.359971028820065 -0.3499128207135851
1.113662975527949 1.216241215453102 -0.2802987755326396
1.811232214887706 1.258550656719364 -1.774455766903532
1.837693768076912 1.297845294401549 -1.707774323797173
0.2692235258598263 0.3290895402271143 -1.375876526050695
0.1145232663152963 1.283229906813047 -1.618390789773225
0.9065164114591349 1.93175010963632 -1.600859732466164
1.492402138678817 1.445241977443481 -0.5021365663794319
1.461530989994849 1.390171036115682 -0.4532844247469556
1.499716827125898 1.321963813487625 -0.4458716548387742
1.432499469617433 1.332946191944019 -0.4120912686630983
1.46814705855947 1.263462756224157 -0.4065394451162007
1.394818882084897 1.272813014705155 -0.3726795856947603
1.534974605029832 1.251844003187773 -0.4435405961664703
1.600129889401656 0.5857709963990284 -1.934294124205741
0.5097611160420321 1.527375754743828 -0.5560686993916305
0.238087449144594 0.8364377578108448 -1.876687049314939
0.6683645669717432 1.220274040854725 -2.167331612060596
0.5764133940052412 1.685468655048457 -1.842205293937753
1.437384222347261 1.80190520906157 -1.656992724408682
1.248300687553433 1.432411609655758 -0.3831857359298884
1.367792927141793 0.3788481669135195 -0.5579748826828775
1.379048634211661 0.328515443212279 -0.6132656575165181
1.453811002205298 0.5500147334406436 -0.4808648791292078
0.6117402193379056 1.375820600432014 -2.091435213793161
0.1146261991887303 0.5355685892768933 -1.270413171501535
0.2089368070171039 0.5633880060432478 -1.678472859631522
0.1649697493979939 0.595614611711851 -1.623091059017224
1.941910475404742 1.25648271274 -1.466843894053634
1.918547597414455 1.267582507204209 -1.540980949758641
1.50208408309054 0.7993520629563038 -2.091220529271154
1.427515933100997 1.284704131702725 -2.108005643533993
1.658630532609639 1.22208249212249 -0.5310527222340935
1.357775490203078 0.5575878991301486 -2.072355295242799
1.365560412653825 0.4931128879281357 -2.030660643503828
0.04089888850915002 0.755146280775967 -1.392027159794085
0.06383524359694148 0.6801420016497386 -1.395898628369722
1.431186645513897 0.4822646498942137 -1.988937198942719
1.368277151641502 0.4245524875856794 -1.980227430349609
1.62924173258994 1.776487711683282 -1.216508574648566
1.61889689441802 1.784249871610937 -1.293803800725052
0.3209394527578974 0.3864973703200618 -0.8468979080244599
0.9821073442114414 0.003380211950663736 -1.169819884401879
1.057475783854515 0.004911825751801935 -1.169401862666085
1.9335956649532 1.356518863210284 -1.285964351180571
1.958083444819287 1.286022998723248 -1.266338817722499
1.665775068666251 0.3386282542696042 -0.9045568470906136
1.684001236962411 0.3908968180936223 -0.8485829828900904
1.641418379981309 0.391612358126019 -0.782616924742487
1.696750556890769 0.4461012187077648 -0.7942206657214699
1.228437842493427 0.1610742502316479 -1.74398354071017
1.212945610500368 0.1888007684753618 -0.7053808911335722
1.791768585847345 1.398568768533921 -0.7871334498857691
1.76058598210099 1.468734185869001 -0.8007815377467253
1.81761275556098 1.325470230552885 -0.7750489383443455
0.09764228697046951 1.401708089872211 -1.093855297024409
0.2472903647313857 1.396910677089293 -1.775252433965144
0.9293712158165478 1.794725761057861 -0.6471546304766282
0.2247807457469977 0.9119179075129786 -1.875521105014472
0.5118591263287426 1.7409307769758 -1.711237543117967
0.4821584095735449 1.760883846320888 -1.641019001625919
1.572395803013874 1.733703729449451 -1.616117306452549
1.634514215279927 1.692423666558544 -1.593425649300283
0.8400837386935189 1.366517498243248 -0.3334348289121674
0.9474385815778601 1.956130375506111 -1.53818744304358
0.9104606049026243 1.971199557529173 -1.470803342775274
1.311741644010667 0.3280371580177712 -0.5782239313694685
1.294214979602575 0.5003699749004247 -2.064743753456542
0.5934931207249611 0.1302279470827876 -1.52972975005574
0.6386676147212722 0.133290336114987 -1.593879725888446
0.4196063544607316 0.9758757648904064 -0.4360213531682694
0.003688173431365183 0.9432299182090313 -1.314342070629699
1.256652452913455 0.2063543466702785 -1.801594140074336
0.01681640636898496 1.164414508075646 -1.170514839441272
0.7495558661370387 0.8412431502528739 -2.205025653305711
0.8204999856565769 0.8170273408640946 -2.216592339541053
0.8781396793873227 0.8741355561726022 -2.234534511350514
0.3818368059751179 1.758720648175937 -1.044531648216952
0.4447442385266659 1.797541381158202 -1.014163648495539
0.4667311059636234 1.786544076359657 -0.9385955963754624
0.5104990431764412 1.831128604796225 -0.9861552434511907
0.533768913701182 1.817974921855631 -0.9130347178359488
0.2034407110925874 1.404815879394165 -0.800981734173713
0.9401211080743356 0.8753171701239751 -0.2596118386027321
0.9511278861520618 0.7985225742184024 -0.2717268462293085
0.88976870619523 0.7521362049335293 -0.2874967008049411
0.9626432813794716 0.7229976260303335 -0.2898572187486511
0.9015119348835511 0.6774214992159808 -0.3085950861284222
0.974596215361083 0.6492085008399173 -0.3138910470233494
0.9134092219538176 0.6023855152680575 -0.3365424154955478
1.035824446029403 0.6957537608992034 -0.298080447170189
0.2342315167336546 1.614165596591502 -1.059214125262468
0.1868371551404675 1.561145312391208 -1.09546157072972
1.862864675189807 0.5967305081174838 -1.554693730205276
0.6139645196787689 0.1721759714485466 -1.657042977689087
0.6862211153351222 0.1415927714782311 -1.655807641081388
0.710265941179302 0.1059460183600246 -1.59164550790694
0.7585916954581755 0.1167918764382057 -1.652076411858114
0.6423122258764831 1.897504271259241 -1.507964220995825
1.519835610146112 1.83187969227865 -1.444286170373494
1.187435312409675 1.225190145389336 -2.206115789055603
0.6807651481531123 0.6146547637538575 -2.115793369268153
0.6506606082154827 0.5549874418131786 -2.074576141058935
0.2243111249117494 1.432822768862837 -1.709316034793291
0.325551726580962 0.4822813141528552 -0.7236095661899012
0.4409668404757885 1.081219355891796 -2.075157768418197
0.4284018137099306 1.156241627156837 -2.055520991267942
1.970938194974947 1.229927633613629 -1.316425182270192
1.977156168041512 1.212490073976378 -1.246286279501478
1.4138740650076 1.857180015031593 -0.9434862480335962
1.122473854235644 0.1054623784347337 -1.679886727677213
1.035733480927009 0.09455529790746786 -1.672957456245194
0.7381965056094655 1.197128633995905 -2.194774699059947
1.783261352966307 0.4329823853380326 -1.504936614891707
1.735849757035993 0.3706057781399744 -1.499775996763665
1.735868260968136 0.7714473805976568 -1.887386541012641
1.784405070966071 0.7691952875556478 -1.825706408993502
1.246481444012606 1.285866781841944 -0.3239724189869985
1.41179981216368 1.829045972293494 -0.8717095156815419
0.603560256723779 0.260337920434249 -0.7061842793707113
0.6647518532131724 0.2154398518882148 -0.728392816315945
1.322500530250518 0.2791054547019171 -0.6365633997326172
0.57573902859499 1.8581310294151 -0.9608395523287159
1.966612400787179 0.7791054122441792 -1.379869348749552
0.9296908861206031 0.9529074016390875 -0.2535869753535376
1.306738684590564 1.135238649599384 -0.3078631272314063
0.8211454886467953 0.03471486938872215 -1.05964328120769
0.4733959010145253 1.020419673320894 -0.4001346225000312
0.4858838355229601 0.3573330524252687 -0.6819649976291998
0.4554989787830317 1.24069799698844 -0.4465181320406593
0.455219069615529 1.167276228820878 -0.4282747410716308
0.5769691594979907 1.186848841353835 -0.363358912259931
0.3954480243618077 1.120069487018454 -0.4625355709372747
0.7931675748574925 0.04863527958991498 -1.478310132645728
0.7198153722898093 1.72875380610795 -1.874831548881839
1.555967679092093 0.1868334011778071 -1.422220853455377
1.173582997403036 1.900694913750938 -1.648268270586257
0.1774163282128992 1.395451325753251 -1.658624952577846
0.2065513392446203 1.467162965764755 -1.640125603060569
1.339588152975316 1.414314652502101 -2.094407043481327
1.414426864754564 1.415640085381364 -2.059625650034554
0.4376283949823742 0.8221060266857088 -0.4424779184886931
0.3787649405680812 0.8541341266850013 -0.4800713358143671
0.3917761206195103 0.7771243310033027 -0.4881665872904878
0.132344480559231 1.1490513796161 -0.7757030615547823
1.584972331562823 0.2440395831864627 -0.9561782521373595
0.6066052233810002 0.1794328018861049 -0.8353796638991295
0.3559881675393097 0.2627938524583788 -1.454391427602689
0.7784699039240595 1.790887187140459 -0.6795423996915829
0.732763866561237 1.746321752975304 -0.6404192506151716
1.208451574422609 0.2334101366061229 -1.857361443016012
1.283473602032555 0.2565252846641247 -1.855712856564006
1.235047153309284 0.2844215645074128 -1.907799618713163
1.632606439880257 1.270195594064641 -1.97581225752262
1.588351301014362 1.231767291820265 -2.02467842943831
1.859932878829417 1.290278501940968 -0.8301740417517538
1.838733290086949 1.250225961833153 -0.7663540177727147
1.878533599450166 1.214357306550009 -0.8231163393080481
1.135888043993413 1.97265415063721 -1.061643044333768
0.03294237403788081 0.9551620356709062 -0.9994224570650175
0.7656801125380845 1.04748957160494 -2.220998934566158
0.8393849736958636 1.025427594403237 -2.236689541227729
0.8220446863248086 1.101598981320755 -2.228779624496418
0.2750305990613512 1.358716564144617 -1.837998124411071
0.2982660761090643 1.42840181801011 -1.819246328390674
0.1156091456719297 0.8688574694228783 -0.8020553008967573
0.9046092866384194 0.2023473285102187 -0.6544743267754245
0.4190930508464535 1.729119209008352 -1.611845679095597
0.4549169274663725 1.775005581814656 -1.569766777813811
1.432425165239632 0.09886783873970972 -1.281133653975
0.8994942715837725 0.7992484562713447 -2.224472891488565
0.1098684924433818 1.015489570127883 -1.705440415940698
0.1809843525280364 0.9454559139171576 -1.82117275133664
1.724953691636005 0.33527471294582 -1.430506060103441
1.683851250412681 0.3121313161809317 -1.493277909252021
0.921943646964227 1.969948154025749 -1.019548737793006
1.892889988444885 1.42713879626128 -1.107522221861239
1.371369924489711 1.756643631377315 -1.788121542293798
0.2580382561505562 0.5378170866599947 -1.735674505487407
1.30905897950548 0.3104666099874407 -1.90500095514802
1.39011668604018 1.407287357947447 -0.4242119041005645
0.5703463533906988 1.869075499713096 -1.495164270956766
0.9539698608504044 0.8540986825861311 -2.238227722676695
0.9328744432567764 0.9294053106924457 -2.245243964801336
0.9755506623003888 0.7797467150601489 -2.225136257329844
1.627575555591463 1.746918753124462 -1.469684542594751
0.09409172469643545 0.5934818419546488 -1.131369548951646
1.345201870183855 0.6263843844902217 -2.110957049259031
1.900573986086541 0.7772824812513253 -1.623314080134452
1.928556709743376 0.7865279106825771 -1.553664459351124
1.981132476449128 0.8188503075000981 -1.317556291816476
1.636211633746866 1.763584570993229 -1.139667049227215
0.3245331126566932 0.3442862846153691 -0.9126811485267571
0.6956120960870864 0.4931891021560429 -2.056530047659791
1.869196482620536 0.7820301428650076 -1.693831742871822
0.5757458096128831 0.1208972161664958 -1.032775053469553
0.8632247202265108 0.67452357348606 -2.185605482362411
1.67078039520112 0.2788882672186233 -1.423353771977622
0.7355578873724573 0.1552910608119361 -1.715335553256849
0.8105431716808392 0.1325907763261296 -1.710116668779493
0.8337907854164355 0.09813377359562114 -1.648762845133094
1.628255015084202 0.7876375979474617 -1.998463657244642
0.6273063583133714 0.1111611075486661 -0.9834200444289836
0.2659524192679481 1.593774397695011 -1.579554417150413
0.3019430497548702 1.652249746021553 -1.545443333025621
1.657677631267375 1.516459394212948 -0.7016116089305598
1.431339359582226 0.8136843436991952 -2.132741657050576
1.163535052970694 0.1487303193826308 -0.7514057588464598
0.9845250387681479 1.935376425914357 -1.603314969140222
0.2758836260131231 0.8816911039793301 -1.929454547447044
1.140548739225817 0.3523835458256543 -1.998891834769669
1.653310315588926 0.4470273893541697 -0.7328859667146587
0.3233187715226684 1.714657253587047 -1.072891205972634
0.7387413527163484 0.05113855657153765 -1.072782956817434
1.943378607481786 1.197514916192011 -1.516504523089925
1.918764186388342 1.205252988425243 -1.587258922124642
1.399722572452735 1.222264862359711 -2.139280718351628
1.480478145794742 1.227961321509129 -2.096861492399707
0.8408571691802184 0.6339931035211406 -0.3330962367136997
1.315671468679785 0.5411020749940096 -0.4194795497480245
0.4777497993490474 0.2483954415647045 -1.652920979423167
0.6588033298712342 1.731140122051767 -0.6592217385353714
1.854985661418384 1.214110899431436 -1.722393947371926
0.07142265460149677 1.35743082215361 -1.150063415171102
0.1887757384330161 1.336061645801937 -0.7714837853677317
1.341885416528076 1.915409934280826 -1.0375405587285
0.4822811904941551 1.210692320864956 -2.07920201411501
0.136017073255869 1.418161880044861 -0.9695108836835318
0.5554316645551265 1.732340315829244 -0.7342125855249111
0.8962722027514813 1.079340911605176 -2.241436111821447
0.8793667531222679 1.155232979346636 -2.230484748413204
0.953940618499206 1.132612794981402 -2.240097156840168
0.4500389350064421 0.5232443024864629 -0.5642545429391951
0.4034524087658671 0.5862020138711708 -0.5623211519404722
0.496712000855057 0.4625595933475318 -0.5733472092617149
1.385328393989527 0.7494043062938602 -2.138101248215197
0.007277412991442134 1.118536006960279 -1.228761348984722
1.6974104051768 1.449452323343503 -0.6917784169415708
0.9480840172003706 0.1196714444830048 -0.778485031975326
1.03635802454363 0.1141782664364278 -0.7874008750573422
0.9331825910148179 1.204732303537298 -2.226534749891072
1.012034264546068 1.184914425592458 -2.232680940938943
1.436802516027171 0.4245382733591485 -1.941409692703149
1.493694944702447 0.475434749463425 -1.943611274061162
0.8084368817033969 1.751441711282723 -0.6186214081448642
0.7632393885487965 1.706677083264138 -0.5832527368975988
0.7855154799472444 0.1712495470870736 -1.766884007737092
0.6227261277607878 0.499244385415983 -2.029043156563366
1.812722983373668 1.18966962141192 -1.800914500634776
1.352800924354236 0.4333794128996268 -0.50537081842784
1.114611339957987 1.442300799023145 -0.3604865127854875
1.259423808548706 0.3410796997364506 -1.956061842517126
1.500517966394215 1.193552215667043 -0.4061876363035573
0.3447828713873801 0.5920554996940055 -0.6141762830448003
0.3596141921478577 0.6512059703060249 -0.5657129681548848
0.4205577510513722 0.6468481642227312 -0.5154726274532028
1.919484499893459 0.6655468805050055 -1.456614049173193
0.0002554041774520677 0.9782526832882554 -1.243852045913533
1.674735330007189 1.737860389599019 -1.26715458833298
0.422309980259939 1.231166928620586 -2.032838484110773
0.3969845733504056 1.743745572562068 -1.538469961203813
0.1972319731488121 0.5240312716135963 -1.609189733516537
1.007091936071835 1.791519723319484 -0.6388975273826814
1.056559863814297 1.824275856665551 -0.6866437238091871
0.9592448153682354 1.746268580046977 -0.5856038671392654
1.009779531790999 0.8363538019926613 -0.2635293807539467
1.021968033074516 1.956561216475067 -1.540702673979063
0.01307552530095824 0.9086158952560062 -1.382774344811637
1.333466155724713 1.941401417360296 -1.199367062319001
1.389881742846901 1.920851460422967 -1.24501859140875
1.441281292978982 0.3238344798620479 -0.6600245684408796
0.5529586032559889 0.1315859909351909 -1.464501977746475
1.24411077430703 0.1535178601695369 -0.7768426088337383
1.276602012862639 0.1946082130974546 -0.7257525430960478
1.565515565590431 1.17952943026719 -0.4450395483361481
0.331683002410146 0.8158230733445367 -0.5292842096774684
0.3213597299367785 0.8887452269227799 -0.5240042980044206
1.275590965160567 1.956197399776062 -1.15132805574346
1.124527951051522 0.8668356152687782 -0.266760438119954
0.8562051412187655 0.1750618134553477 -0.7033739605831925
0.06278420179882382 0.7211138740235301 -1.459401710451392
0.08739190616961434 0.6491467315470939 -1.459877228615167
0.02274937504574792 0.9079754318396499 -1.058917047119779
0.04200728785905383 0.8818819131620357 -0.9886609844539599
0.6399239521851539 1.443383540961453 -2.070826580584793
0.2233496616244236 1.473151158561412 -0.834136761599325
0.4539232599648084 1.720761794182498 -0.8230308792905925
0.0327232457359955 1.213025533391971 -1.112174738224232
1.903735087629114 1.424315903947814 -1.306735394992431
0.1391170462275413 0.6682543150301808 -1.635778875015095
0.7875531389862958 1.014699415642349 -0.2729379454583259
1.698745932067 1.512942280113997 -1.748642496876542
1.726150860422676 1.537984687595226 -1.678109102706862
0.7466308541756006 0.8132055519963221 -0.3008362047890704
0.9441996150123902 1.908322525440468 -1.664531671664162
0.2883802282641199 0.8082103733338413 -1.925880196172243
1.898318829728212 0.5606975639514282 -1.243946089071844
0.2599454631702046 1.289131961141477 -0.6427751721445172
0.212160742256877 1.242181514895166 -0.6837337924599
1.063662867681573 0.3409369716873164 -1.999388393284733
1.473698476700795 0.6733795842031542 -0.4321192891649529
0.008295000221461679 0.9845296765186919 -1.377600401667209
1.646373393212158 1.195896803476552 -1.987445509129366
0.6006504310415698 1.242256868970354 -2.13421237901841
0.8278736077321831 0.2187203628552956 -0.6500211389824601
1.090900003013504 0.07434709179237509 -1.617292639429259
0.6884736724735792 1.398148318167832 -2.112803143247652
0.7194763872103194 1.277976721871415 -2.168714016854564
0.7980302602466345 1.247901023521665 -2.197498446838236
0.4921199268895974 1.617295787948664 -0.6491641309656933
0.5590084518735021 1.649041069856491 -0.6301031181554981
0.3312007690031756 1.391365323984579 -1.882092376002513
1.962731549911847 1.189867473173626 -1.442609203920779
1.356520456235158 0.284141647931524 -1.850366541422555
1.772609436909765 0.8338829441388812 -1.862764050634507
0.8533803174990404 0.5624187504089657 -0.362855525458414
0.9265388993698425 0.5343832832231389 -0.3680677238290107
1.594005177111571 0.3917141446818632 -0.7235532621579523
0.5627261211956374 1.872860849556618 -1.033423241720894
0.6340790903845634 1.898235859198794 -1.006537006599326
1.735111514199739 0.4452747848886908 -0.8602680441499843
1.912804278731642 1.408014141806063 -1.232313598006685
1.693764739919408 1.600833785427777 -1.647101055064179
0.2750883117057874 0.4042476241798525 -0.9041934776799543
0.272560577525621 0.4481631201605871 -0.8421912891081856
0.5831738888750448 1.263554395337383 -0.3800603045137021
0.6446019772434655 1.307420650861381 -0.3672855564540077
0.1584119506345453 1.506085480135307 -1.061301717121049
0.1402522467220151 1.500127414422513 -1.146528409326476
0.07020777625685848 0.6404427065609388 -1.328771653540856
0.5796609311466409 0.5617485072279413 -2.044512867283188
1.630441699143253 0.2612384786976601 -1.488274376768507
1.640583956732393 0.2950007450893635 -1.554348886892196
0.1628323903174924 1.428234070913611 -1.590243991581384
0.1921600147324168 1.488424554042733 -1.579903036074281
1.059220534579828 1.934691704546315 -1.600491577268817
0.01005928173186199 0.9252884081390933 -1.129851956502105
0.1526606989601768 0.5675519449470345 -1.558228468176207
0.01837281469433982 1.190508489126156 -1.239295578495003
1.510970051851331 1.339802271309906 -2.039584715229263
0.6102348489211701 1.90160987638879 -1.437570674154271
0.6830596696006552 1.926636849892484 -1.452220116179595
1.070094871604816 0.8385063516441286 -2.234381283098889
1.583187296838485 0.8809059695993691 -0.4464396794706977
0.2187824371850667 0.9889597480842262 -1.874161223072318
0.4397157355243807 1.791745071133865 -1.493354238336311
0.9078574243842458 0.006685357947290083 -1.18046031605916
0.9544505073248958 0.001059648079077768 -1.243410840634447
1.751507153963654 0.5022600081761754 -0.816996653499459
1.364263622890165 1.473967585111297 -2.0516649807137
1.435970075763665 1.472468574496862 -2.015965755860879
0.7833663158233626 0.1928659948747553 -0.7008146536454762
1.675081592538906 0.8185507394433369 -0.5349188792461557
0.1625393550698125 1.361712312588083 -0.8403368809432614
0.3591066237033158 1.526597707543575 -1.8085253213856
1.048254884541682 1.186669569048654 -0.2687630571013652
1.118272487821681 1.145695171072614 -0.2677655393183397
0.5747034904171969 0.4974891387345911 -0.4972678343215419
1.66157861369063 1.74307303368295 -1.350777996211482
1.597264215593599 1.793778595153301 -1.364852072892982
0.8758255721261446 0.489537506982636 -0.3991129600912361
0.9392944764493873 0.4718984313606076 -0.4029913975578175
0.8852649826219253 0.1132317553832318 -1.697747647817996
0.9115467344219335 0.07865181685213241 -1.628541338850461
1.014521322558661 0.06608760299170335 -1.607206895097736
0.7134979900683223 0.1429022830876534 -0.8218643883431891
1.743073651793077 0.4105530931514526 -1.566849951897709
1.770589919887509 1.358257674193089 -0.7228922176162434
1.924450462239324 0.8482528812576271 -1.599805881624206
1.949434374842038 0.8581028369936332 -1.530070639302038
1.89245806326527 1.274237121423968 -1.608207490912597
1.853489004135165 1.17716645580181 -0.7599300389138404
1.814117093340929 1.20578416400327 -0.7069841289836986
1.824031841972646 1.136643523289594 -0.7001817837155854
1.780234038123822 1.165927107735146 -0.6469220277015214
1.945071232656556 1.312489368041996 -1.15413154812071
0.04394977286027157 0.7905535448111616 -1.455183200079596
1.698870472108029 1.684898983370412 -1.456139384382694
1.729538340214648 1.633764646861567 -1.507130672120792
0.5437366128434389 1.786622751834885 -1.665990826624981
0.5767246153591218 1.765117299008998 -1.735214867367327
1.605613988882207 1.684714802051031 -1.655459413902798
1.540914899897479 1.721578057659735 -1.682129815880487
0.6444189002499077 0.08698659738588144 -1.050078495034915
0.1786478391265979 1.565561058142273 -1.175694432633986
1.824416198878293 0.4951949625471693 -1.505948833147005
1.375032329358196 0.3377830413965612 -1.898705982455979
1.490158228011856 0.8700366387928449 -2.111890037218215
1.548604764752335 0.8603099119822948 -2.074329722502252
0.6038078149341297 1.843828155935221 -0.8880804015479458
0.5632102170279751 1.802796673804326 -0.8441278698654446
1.601913206673362 1.157101782387934 -2.03295563195032
1.817156469862312 0.8295439809218589 -1.800636040704017
0.6288029872648599 0.09347662095441067 -1.451067503541161
0.6819122826052518 0.1234203608679663 -0.8888513598229224
0.09148640588422396 0.6788833480378931 -1.517370800835622
1.96577399362455 1.237059874171063 -1.144723177781211
1.963186126234264 1.197890953077904 -1.068033912720663
1.979702914148612 1.163950975431953 -1.13466449955184
0.8245142039275997 0.0612580781245623 -1.54659457090521
1.167967921888627 0.09063553937297197 -1.630582520571992
0.01882632583719035 0.8566602199172727 -1.120570758421104
1.203393738635654 0.4740936829231611 -2.075865323610627
1.247765496266301 0.4280235898527303 -2.031956037827547
1.888198789937532 1.134420921528597 -0.8106437374875516
1.912199984325733 1.178071627230571 -0.8809719737315478
1.217848923893077 1.150903300972937 -2.214245840081304
0.4302699516770342 1.805302794186907 -1.086002799680388
0.1009383160662995 1.427449321578756 -1.155262647471233
1.297914560160525 1.156448944418221 -2.19168500181047
1.344612877352569 1.091139568814786 -2.184310196754289
0.02152085493461986 0.9440342218001943 -1.448611163690798
0.01961460317406738 1.019569580893128 -1.446116050322573
1.720452183964735 0.8279947231508422 -1.921835422820565
1.311489310374956 1.317678165919259 -0.3544247700944881
1.321380279646905 1.250240704621411 -0.3367123642550193
1.379183044762776 1.194627325723348 -0.3453782985986861
1.033542203112598 1.12847840469507 -2.241144903703471
1.086835230939459 1.168772835621256 -2.231822475106397
1.069064733981951 1.240877635461227 -2.218095050733455
1.253932101283074 0.2810330710667055 -0.603003057937528
1.242222237299031 0.3312551149052989 -0.5470713646339858
1.187702277684606 0.2888489534301212 -0.5724809641681077
1.950058636934726 0.7974403980417408 -1.487398808000885
0.372089962542472 1.089488912582077 -2.023124000005796
0.3564086869285823 1.005525096431737 -2.015349394099472
0.3062859390996119 0.9755346886889832 -1.969834877073588
0.3575897380435497 0.9284914462587048 -2.013017419247341
1.08416375175731 1.778090858194698 -0.6275121854333432
1.133455189849059 1.81058015810707 -0.6797811651782542
1.157176287790921 1.763871393958756 -0.6240638147160905
1.210365666984192 1.791968630774792 -0.6768229121615235
0.861983124568279 0.1181474052061693 -0.7991260229826378
0.4747011955519649 1.280683224063647 -2.053292035174445
1.340463563715173 1.875634856536395 -0.9074388232726136
0.7733237971766717 0.772867561000546 -2.197116019412488
1.785896692970711 0.5067926047309395 -0.8770216450923618
0.2495669572595873 1.60782431809225 -1.509614804468191
0.2874082421995374 1.663891976685943 -1.476848914493497
0.5337703739901323 1.867801341606574 -1.421903366274571
1.306045986359478 0.1850147365827535 -1.742072021807759
1.278552430777747 0.138966239909615 -1.675475507276766
0.1466391245564919 1.519852471930562 -1.210902382553743
1.980528246673363 0.8605498533555737 -1.388267906892772
1.992556847147597 0.9022862661738797 -1.322683776746814
0.2791193042804131 0.845559960620339 -0.5743674839269108
0.2644139016571433 0.9189790642944193 -0.5774312675256712
1.791296917322598 1.088215360593455 -0.6449650929151934
1.047761293499578 0.622975825631063 -0.3250288486743662
1.171129212162483 0.3707421937197602 -0.4918777104054861
0.3033092451967254 0.6585460997714649 -0.6191028402422744
0.3208689852893513 0.71479642108658 -0.573656904054561
0.6626808410757061 1.331587245646843 -2.131059409771525
0.5808443252694622 0.1040501625439298 -1.396909526932835
0.522010373068742 1.14138136158348 -0.3830875320178411
0.5391029279990309 1.835992480473609 -1.547809438420808
1.441039767502421 1.153634345267222 -2.134240019132657
1.504676089205512 1.156400009277017 -2.099023605138502
0.2573347940102342 1.506151162027044 -1.688473936501192
1.986449811372499 1.156463139677662 -1.299356413619406
1.019509125558913 0.8815000215977883 -2.242762383019523
0.7898208173704905 1.658247768393508 -0.5271344616084134
0.9451199632775913 1.690112733532193 -0.5283819593537923
0.2475457174976727 0.4569391338878417 -1.622689479917827
0.2909953895101526 0.4474667212332459 -1.688200226106058
0.3414439452860037 0.39416646547936 -1.696396293947166
1.990784360792062 0.8645551885916101 -1.248973611958649
1.743331101657441 1.56477379341138 -1.608454230808419
1.775365316476973 1.49958400593899 -1.636295802481096
0.0744529822243809 1.377859716843467 -1.225818348409736
1.99048229504445 1.135881777237805 -1.228069067092928
1.988040393556971 1.10791968442643 -1.360134111033256
1.677230349429016 0.932017502068001 -1.982623664501208
1.642906465341028 0.8637869810247493 -2.003735557264187
0.0488750736729171 1.305376959308539 -1.204105694876468
0.9613268223006057 0.1024622860571041 -1.689238474381277
1.320995645169662 1.946731968399225 -1.275697777978682
1.380988200326587 1.921145185654758 -1.329621216751375
0.3697806682778939 1.176383182521664 -2.006116767997689
0.3710940680384777 1.251118216649028 -1.98581041716642
1.237379909181859 1.73535174412456 -0.6152491897368075
0.6748587348355668 0.2588000507164201 -0.662713193687028
0.6048424119765162 0.308295083620887 -0.6455210596849326
1.34449514049291 0.926746135172032 -2.185925728604859
1.373957616122423 0.8633349723097974 -2.167321302243914
1.942245319061894 0.9239363329941067 -1.576171852353274
1.344387193920774 0.9277588424227684 -0.3139558366106453
1.411380729560628 0.9320950688469003 -0.3410694109717406
0.8987065360365044 0.05364675212269054 -1.556847135216127
1.233289353120725 0.540095277601494 -2.106775188737435
0.3548408685074269 1.463197419740843 -1.85763298577116
0.9903479104337608 0.08471489914723951 -0.8473090250279287
1.070417035204259 0.08671931266957111 -0.8488020098476294
0.2256664035572978 0.8668583849270199 -0.6313880119526708
1.189207957106259 1.073413401591588 -2.229188858920703
1.108860491820575 0.6705727713542107 -0.3121156284768696
1.096700292400437 0.744328916284594 -0.2880845409281231
1.076271764984579 0.5528583449356923 -0.3587946599282021
0.9959686942383853 0.5617121278205502 -0.3511743830562757
1.332482303523987 0.3638926676042574 -1.946292308959216
0.4111341497364839 0.9648591346230354 -2.057466488452607
1.490463502762419 1.41301973882079 -2.017372300648404
1.50120816362308 1.479037610271709 -1.970633988001365
1.445077403806137 1.534445430404112 -1.968522224110954
0.2734813374112567 1.466046100561796 -1.754947190368862
0.9110394456517258 0.08692117268128119 -0.852038852559297
1.66778098467639 1.691634400412697 -1.525155251940429
1.784142667222059 0.9366460965359702 -1.867338286806954
1.93596473076252 0.9321224475000303 -0.9045109833362895
1.942209646710509 0.8643496784269703 -0.9436668938838129
1.963652056194438 0.8645763708215116 -1.019706371663568
1.944190744403898 0.7995342102100312 -0.9886242067331072
1.961264532139258 0.7983506980570924 -1.062095614002675
1.978950408963603 0.8658113142128343 -1.096216082125898
1.973310409172718 0.8014001285332537 -1.135000267611491
1.952505224316547 0.73313393788884 -1.103315636337859
1.919705701700683 0.7916571204763534 -0.9172318122009706
1.783500111060231 0.9320175020679623 -0.6323383159499646
1.800400906554374 0.8632289710272181 -0.6663459291492404
1.84167093194709 0.863338033451197 -0.7275887164174856
1.75370182653642 0.8674734653792431 -0.6062840111531504
1.735966468806088 0.934285294060461 -0.5761788559147339
1.830662713874718 1.067138298826301 -1.802713220946449
1.619140495025971 1.067027473643598 -0.4675855540725536
1.678045405101805 1.069578405466066 -0.5182806042524715
1.698608226517518 1.139125428708817 -0.5481519673543019
1.732620806536747 1.20647107253817 -0.6014350841786267
1.633559976017579 1.148443738020157 -0.490680427335626
1.616010166203357 1.078413598833377 -2.033825734874858
1.039168988720175 1.067982497931967 -2.246917333733128
1.73456563354007 1.07174059534269 -1.924734478889105
1.753418719899543 1.135408098312001 -1.893447650874927
1.960289378508448 1.067049454122733 -0.9791703852498741
1.963872522768064 1.133130068525577 -1.019292079227647
1.960055474635504 1.067318974166368 -1.521590944877743
1.905556008775013 1.067031690349923 -1.668897442651897
1.883611431081126 1.137280187556189 -1.69764381931096
1.990804978853406 1.067478581140609 -1.132730502829796
1.487640507305613 1.063326640922578 -0.3792552198352339
1.449697736398033 1.139676742036762 -0.3678082104142653
1.345466120083769 1.061301158873709 -0.3135731060061296
1.503151433326371 1.084256223949926 -2.110081114702165
1.978630139745245 0.932438674266394 -1.055787444156357
1.869895155958104 0.9359045216452735 -1.73905438071354
1.883035504935061 0.8707236320919914 -1.70114955139576
1.370436391111148 1.161722535643479 -2.16467081598004
0.9905305269450798 1.254282041346604 -2.217083746388422
0.8301564893092067 0.7075573387200415 -0.3089205815980662
0.8199009939489101 0.7805218847547444 -0.2911498005695573
1.498582582165091 0.3853680117272117 -0.6387366134362132
1.516037061246353 0.3412687183798674 -0.7024793610873417
0.27603613888237 0.3102008794519986 -1.242685556285222
0.331349235678723 0.2564409275755106 -1.255105015945631
0.3536528055201025 0.2410274789179023 -1.328714778982415
0.2446374422637108 0.3469269488511008 -1.304064741127267
1.405091968671463 0.4896353346204931 -0.4914300261347391
1.540758890453347 0.5930463815459601 -1.98618514982498
0.565898766869215 0.4076836152419725 -1.928761681108703
0.7606023739929026 0.04182468345445989 -1.406808288763764
0.9463814901986728 0.03293237093600043 -1.498807669140682
0.6075502865743728 0.6164227980686126 -2.085973535819544
0.6392395573174814 0.6803727414277045 -2.126179387210788
0.5501825052458169 0.6314734084870006 -2.063543098281143
0.3345959377874292 0.5361939302690224 -0.6650885847654254
0.2815855827832925 0.5480653651725815 -0.7211939760379177
0.2752817634789901 0.4963162784022626 -0.7798019712383617
0.4649016686724321 0.5813773790633187 -0.5162255952606715
0.4827392899504442 0.6418900705542228 -0.4726978475062803
0.4374167555539461 0.7060039831640459 -0.4772992589927554
0.7088376362328113 0.6735288012390408 -2.149244702127894
0.6720684544586033 0.743382059462864 -2.159179923905775
0.1220169206243569 0.5570120280938848 -1.068596116148054
0.7119814960744311 0.3833278974950558 -1.982639651799306
0.6727421721291666 0.8475758285929341 -0.3174394464335663
0.3694554229778118 0.9319708086713773 -0.4768340634022452
0.363503556571332 1.010149256924954 -0.4787871434639281
0.8392734935711146 0.01401597372518282 -1.20525080936971
0.7920956252190142 0.02902828831437021 -1.131721912201771
0.1123145428859585 1.093115562239668 -1.700936826281715
0.07005263149582031 1.277313315565552 -1.491444024200624
0.08095611629060218 1.242698778197866 -1.560573087819292
1.328916369683061 0.1021406258466412 -1.542681680327715
1.279344703809778 0.1054061619445141 -1.598809978880454
1.258311717667674 0.07623071535825421 -1.532710744875487
0.7551583177931942 1.778359304207097 -1.828108419077585
0.2529530551641395 1.284563757572701 -1.850786426350922
1.305999225567386 1.384634158737733 -0.379126279025325
1.315199354244367 1.45621407101505 -0.4178232828949076
1.24064067317184 1.50256040706095 -0.4196235169092661
1.380617978612509 1.474257840341329 -0.4561426732518582
1.183991245612588 1.564975994960496 -0.4456683851443322
1.154956774401807 1.508325409385105 -0.4028909891634648
1.260325641817802 1.568248040928579 -0.4694074531530665
0.5798602638678083 0.7439680051154338 -2.120591878964077
0.7290896743700184 0.08832703805854381 -0.9410339728514647
0.2320533391031465 0.6085037357630485 -0.7430595684837474
0.52632284708201 0.4687863098935006 -1.952454247796213
0.3434562923521995 1.153185092180576 -0.5114306481570549
0.1495456018408361 0.9013992689765126 -1.766725471109532
0.1132595799369561 0.9370282688874085 -1.707958500856901
0.9706680116315672 1.05630196314489 -2.247982827209159
0.1314412671175654 0.7935082978755013 -0.7994815159314915
0.4826615588171057 0.3105394228096239 -0.7430433452702625
1.630079194724209 0.2244767955997267 -1.289547032915556
1.594244404735812 0.2025589948517376 -1.354696851663789
1.469717763333072 0.117867394829285 -1.215253925342519
1.658465537789657 0.2646929546846192 -1.089542265213102
1.680390648075816 0.3025199626594953 -1.02507742771687
1.734753138423081 0.3585416243948867 -1.029389533467964
0.3124817104112253 1.335777857514996 -0.6061274723335645
1.939067931942078 0.7349546667211091 -1.031133852537423
1.926877472179791 0.6703230720796249 -1.070525002402604
1.938235413281697 0.6702031730942036 -1.14536557819249
0.9456390593455101 0.3785490119542416 -0.4684351865724061
0.4041472570694826 0.4140079500941778 -1.799156467857159
1.761398802144013 0.3622835926205971 -1.366574644982387
0.5422259815229175 0.1152962063040156 -1.162010537975978
0.4761467285862813 0.1542843659794011 -1.148300361838002
0.5347202345115274 0.9869322388000802 -0.3649327859172424
0.5268731717764544 1.065375462735042 -0.3714346619133517
0.578877689156996 1.559729249127559 -0.536305971034262
0.6134259138079468 1.651640557556429 -1.902629343220427
1.206881244925985 1.920349477477266 -1.581899065688952
1.767000879495352 0.3768606757382602 -1.097006426893222
0.4556301522919414 0.6063281246979209 -1.990732018683174
0.4634699434637399 1.315772104766145 -0.4674250986105188
0.5168496767906774 1.280114081829125 -0.4204809427482975
1.118668531265111 1.969179381575609 -1.465891421821481
1.391952178558522 0.08506180375307171 -1.34623713821413
0.6829300828553821 0.0534470961477963 -1.190803143234913
1.244614637495653 0.03408303537131752 -1.334664612237836
1.288210991885174 0.04265205704432418 -1.270477799566854
1.212823368975249 0.02301869018467939 -1.264619640541594
1.255361345860448 0.03436739280273415 -1.201582534579439
1.328943104258864 0.05657996745336924 -1.208106368619368
1.177689448502323 0.01701429468574844 -1.203464389562575
1.300773379781596 0.3784233750096991 -0.5266896424905678
1.512113823539005 0.1745558425980479 -1.487447625280276
1.386854816773042 1.716484729686505 -0.6694890329498053
1.336631698754748 1.766532773443761 -0.7030936034108688
1.404151050162284 1.756397590683024 -0.73568043643894
1.350971288462597 1.802867696142819 -0.7681051803917929
1.275137828424158 1.810912035458853 -0.7335497641417736
0.3404321256424915 0.2756811871682673 -1.049170528822219
0.2803626718816994 1.693514638720984 -1.215947660014967
0.2575123465830356 1.664100775586987 -1.16235158650533
0.1575570246940088 1.496301136240592 -1.459702206769234
0.2744003617123956 1.520060420860533 -0.7993978211645407
0.407086650108715 1.789904924088061 -1.406537440959439
0.9572468214127402 1.527089572791137 -0.4012663857395876
0.9346142023312801 1.466874316635479 -0.3680969044564024
1.007791190071117 1.492162708791856 -0.3795316401890655
1.049622967301506 1.401147682714803 -0.3353317006866708
0.8601300933049596 1.442145020715884 -0.3640292387119816
0.09254874501422539 1.350872507609563 -1.481129191640779
0.8723108349286073 0.1519397116437173 -1.764285158677974
0.825014080203938 0.1966232847749377 -1.819179919979013
1.57942772761933 0.338800280943514 -0.7734725191706953
1.333380191288267 0.2327202423107889 -1.797849816552843
1.357263035063366 0.1714416285542079 -1.681108047807518
0.7867534145988226 0.3799868212335002 -2.005055992606243
1.83328575576595 0.7060467239002823 -1.718216104707871
0.8323409749849147 1.961884870168309 -1.46602765534136
0.8768903716223172 1.98032897130803 -1.404269658114772
0.9485931914813933 1.986181934236827 -1.407488198360518
0.9180500207417513 1.992603080628663 -1.339573016171508
0.8004712563560196 1.969792061187366 -1.390326898767896
1.005423534439233 1.995019700683089 -1.349530801899326
0.7434805480919817 1.963113764125648 -1.331299742585913
0.981630737826876 1.973744520020181 -1.476901255919579
1.469842075057365 1.560322447722377 -0.5678803777311541
1.515244916511734 1.498213520036835 -0.552643588642563
1.407644011032632 1.704156921545011 -1.831368549295093
1.395501184845904 0.09756108651650808 -1.079170201029737
1.719624079250243 0.3922741615196678 -0.9141272714157687
0.8954910802133025 0.02641396937857532 -1.047002151085692
0.1536131392018839 1.322858335092111 -1.673546664878689
0.1560820440884063 0.7075539961736088 -1.699753063953957
1.694134695869981 0.3491204423895995 -1.557461908981224
1.645336513738398 0.3328110933572073 -1.622021164571003
1.595960343458406 0.2814951203521596 -1.60858333333715
1.08743135127388 0.1478140188495487 -0.7341174432634245
0.4972229510127967 1.842606045157422 -1.057048473248102
1.682744742559421 1.598437846251625 -0.8307962778299959
0.8061947384275467 1.48537608128589 -0.3974452625770086
0.787618620283016 1.413484952378681 -0.3646049787208482
0.7626965206469873 1.340736451825166 -0.3402826103209026
0.7144617286517031 1.282866028938833 -0.3343282764725113
0.7346989623446278 1.458678794681616 -0.4019262280152728
1.385518146592319 1.893964115179381 -1.478481770431624
1.417124792836257 1.895663590335078 -1.404251872433975
1.454509130489574 1.88663624463802 -1.335426108396671
1.401674545623135 1.571679633181544 -0.5345700898034365
1.472502649423627 1.783458890796023 -0.8463498882443876
1.527231840164285 1.733889528703136 -0.8217095070202102
1.678168454639733 1.400605509087644 -0.6338808774107183
0.39792806287062 1.796572228260851 -1.195391688500568
0.3690927878413173 1.766143160084205 -1.127604134455662
1.197965685006353 0.1219010339727749 -1.685605088838369
1.184074805493713 1.756615694819772 -1.877414660599229
1.146675870898619 1.715734629338701 -1.93279581813418
1.068660473120509 1.721439157105402 -1.939065513594981
1.108015468757126 1.670497560455023 -1.984006593930218
1.03003679182901 1.674824862621425 -1.98736639191422
1.068516269996582 1.626541255014726 -2.026370772576047
1.146511192407579 1.618932827366401 -2.021658360744923
0.992915427623872 1.625101015803531 -2.030511709633905
1.166051830680777 1.528525045573035 -2.082519108327001
1.244542153027252 1.544104645558709 -2.052589104133757
1.037596970127056 1.576072803472112 -2.066533277299246
1.223492320626304 1.705969875193675 -1.922054847419536
1.742868949345463 0.3322205054376364 -1.29707728476029
0.09056963888394143 0.610679515441747 -1.396171059323118
0.1178767195488032 0.5763969631110446 -1.455958697860696
1.713078402511357 0.5136298879662475 -0.7450610868707719
1.656405829447909 0.5058067417261514 -0.6799961311153412
1.744087154012641 0.5746625802650058 -0.734808398159922
1.642130651944152 0.561211605407105 -0.6214039686695695
0.662408710780928 0.1829106876611755 -1.717329837593398
0.5914996178362328 0.2165127094340641 -1.718268195902418
0.6420512132000524 0.2268832186473613 -1.773605871261373
0.4130003230038337 1.566423783504322 -1.828442284663774
1.545083009801269 1.646749715790055 -1.78347850711296
1.752742639004054 1.473352949448919 -1.707510114285161
1.083548329576435 1.347136035823808 -2.184085782601105
0.3871204846381673 0.253846373162802 -0.9899356525635614
1.263099800432086 1.415421803845096 -2.120748654838285
1.790689441645509 1.28011855362782 -0.7056253103020207
0.591076632512848 1.39620044243081 -0.4279252534345808
1.365494493677063 1.828290350973831 -1.674675016424789
1.331868045255203 1.805143042465019 -1.741536653474248
0.2866518589396584 1.66412698157013 -1.026237219367691
1.643504750706945 1.720245357794477 -0.990870186213361
1.589711916074942 1.772549815156358 -1.0146138509999
1.692978627062129 1.690938572879927 -1.044125011374047
1.586163977546147 1.794110538047036 -1.089375453961959
0.9491991830077469 1.951955629421162 -0.9480070255680128
1.861376395870553 0.7429422988268857 -0.8118766807111837
0.279067374932967 0.571374189845975 -1.794551251016617
0.3351964834304781 0.5432976197854241 -1.841150759335669
0.4264797883080581 1.737572734658678 -0.8935437924948568
1.153194815760565 1.951516526442595 -0.9832648348441736
0.7770330082860465 0.2393044998928864 -1.859613054915016
1.556150156468535 1.828614795476178 -1.313988469101821
0.2550616916894011 0.7614327384602985 -1.873018923093666
0.4033261591123899 1.517396337793758 -0.6365822327010456
0.4263708419908121 1.581694592132797 -0.6733016468160069
0.5935668684595954 1.486009173636663 -2.023697093653109
0.7579567718846464 1.416544777652986 -2.126302187566323
0.8576545782450193 0.983415492804175 -0.2603219033309526
0.9051436874218713 1.03391722954564 -0.2550869879712957
0.6739757100743742 0.8627503941252177 -2.1853452346945
1.032348232885421 1.546318241695538 -0.4130472112359703
0.5196556243420745 0.9831210231691722 -2.126917545106119
1.655354447596413 0.5188015932419576 -1.832201547017115
1.654603780158229 0.5816902616976962 -1.879691078104188
1.485299990802222 0.3605937407745289 -1.846358578869
0.5923410889989554 1.906297234337389 -1.361532664784095
0.2133349952531315 0.4632055608190746 -1.554975245505344
0.8478668425784048 1.607081743163075 -2.029940548715746
1.520996917366978 0.2004253693264861 -0.9512649634250774
0.8580289583440527 0.94955137764467 -2.238584422208632
1.730723362093304 1.678190249739042 -1.171888840426257
1.90126423814496 0.7159360376327475 -0.9228449322947878
1.794356681443401 0.639446021929172 -1.738874515129933
1.792201799625219 0.7031276181453041 -1.78318204917503
1.601875967043821 0.4632175439166257 -1.841278204516424
1.780838720697436 1.57636184602366 -1.491035090200141
1.959064596887914 1.245287562207626 -1.39152424111248
0.004417021773903462 1.002438337112325 -1.156145921886247
0.4145821219142198 0.2945674305675193 -1.649563259073493
0.4591833589527782 0.2946158381202064 -1.708203606419179
0.04049638973000458 1.186407957317897 -1.038801289475021
0.1038809660364991 1.178189116793096 -0.8435282105424557
1.824726641910648 1.534122222363878 -1.064152165199974
0.3987533063717739 1.394656914724827 -1.944800930526871
0.9300635800617918 1.330916862290846 -2.191064783858055
0.7161717982098319 1.920144209043258 -1.519770618179069
0.2991995293183377 0.3143791966313564 -1.446984299578663
0.5066118499986532 0.7880294264187726 -0.4064144326899055
1.674251533875992 1.308380140049952 -1.921033947195403
1.687267768184015 1.235335258591804 -1.937226549893768
1.853213046670846 1.518625564079706 -1.194727753133597
1.009092433492904 0.001251215201961253 -1.299175120921232
1.066873150689702 0.002247231433929464 -1.245829324326493
1.401271242547083 0.6807337025568994 -2.108516407077753
1.330705830677491 0.6945765745693491 -2.142944670600659
1.280971080730459 0.64176794257723 -2.140351079534252
1.098778001464747 1.987371289441604 -1.126141842363713
1.324399279259 0.0696605041287619 -1.079021843388427
0.6941367476881163 1.06925407307855 -2.199553339337621
1.132736538048575 0.2150612036646843 -1.855187654760525
1.889102042633036 1.438316913907626 -1.381817452441845
1.003789134326004 0.906246237518855 -0.2544117947255057
1.889140713267659 1.335822126996507 -1.560889515792058
1.875868896800069 1.32826400864058 -0.89631028252231
0.4845235543759414 0.1703544146359235 -1.464411372582439
0.4171318308819724 0.2152938172976419 -1.460952374382683
0.5441501527040578 0.20745241586557 -1.655054618049152
0.8258787328097938 1.833154952212205 -0.7250860928529763
0.149391098868296 1.133317851767013 -1.758616601887653
1.456863421933795 1.889021643671946 -1.219729043923679
1.171813622440577 0.02873924049128596 -1.08528018885877
1.092253673388303 0.01677294314148658 -1.092666550258027
0.8947157920053703 1.981781466178831 -1.091821656935318
0.8458208153577427 1.964194498952804 -1.034227556874838
0.8183536124998062 1.972785054327165 -1.1061465051317
0.5522381254666371 0.1814405986276514 -0.8901808646843372
1.890998687592599 0.5897380663748039 -1.444438896639485
1.929809256940261 0.6319596076187846 -1.251007613061322
1.938586633301442 1.250447750209505 -1.01265835552339
1.268902936989084 0.1076371995114722 -0.8875364255778015
1.820143709690794 1.365615103420576 -1.690102137696904
1.772725285366793 1.232947431034463 -1.840449936683249
1.232309952456649 1.85557808025555 -0.7873789514345279
1.751654300773838 1.6573793016588 -1.303556193654714
0.3546848294904893 0.3442780264652577 -1.641914562288752
1.683399052398468 0.7744886086227372 -1.944341664845174
1.563806560493756 1.308894015995044 -0.4840322139759045
1.598084662731964 1.23728024066255 -0.4844983190116986
1.412734732014025 1.880711839616312 -1.017628107231184
1.724179346169449 1.445402709443848 -1.776479535216392
1.668474674303888 1.484353440976006 -1.814396451113057
0.8987344948698395 1.928605091355565 -0.8930155720773587
0.3814402502332296 1.674338490758077 -1.653300676729645
0.5420697201350559 1.189171989458178 -2.118627548024612
1.773073562085906 1.505361610238227 -0.8666373642342877
1.733842424175675 1.57146200215509 -0.8827038298962762
0.7470629742606532 1.913327969757746 -0.9308528855397133
1.338607759691447 0.1324150105108601 -0.885800781041655
1.3865848391922 0.2149364648644967 -0.7660295381872074
1.409584971240816 0.2656720926951731 -0.708702784149989
0.1502466507677355 0.5022711747233355 -1.423739062842127
1.07885400471981 1.889615380739761 -0.8001483352360492
1.028481462519163 1.863353344907439 -0.7462045969543719
0.4465348165017499 1.532553267912995 -1.890361856679829
1.857789010311348 0.5229812690315825 -1.4414448852656
1.035350216917043 0.2870581397097024 -1.950331540064938
0.9120123865486084 1.17626553453729 -0.2695977146021068
0.9787724433193076 1.217179212751527 -0.2740990929474473
1.01948447046994 0.7655541733050992 -0.2780660980520071
0.6694104514101354 1.936768191751943 -1.135213653752093
0.6942285620553481 1.933835570741018 -1.064379541655404
0.8666792018831723 1.901804372640578 -1.661065004927232
0.04909817794585425 1.004742920192782 -0.9405436549008073
0.6661798114109725 0.09886463258533973 -1.526620916209949
0.7188160440987155 1.046075676878911 -0.2914528624298883
0.05530554084342387 0.6722012646599775 -1.260018380525112
0.07159222170317348 0.6325304930712887 -1.194998557514186
0.3902628293348764 1.684010643690727 -0.8495627114926898
1.274974797691673 1.945816637775915 -1.077316044924009
1.211992951278084 1.96617818603312 -1.103171183202484
0.02408222126108428 0.8298316086197844 -1.38648152884684
1.861305730591104 1.466688400135507 -1.049116014501193
0.137739911520396 0.4951551693996182 -1.209512510188733
0.6790658335544588 1.83213805992122 -1.702269289293948
0.1254183691639122 0.6380567248712149 -1.572651571502662
1.861333870854046 0.492054690045615 -1.240226310065843
0.1659203622796321 1.118440690200302 -0.711220860792536
0.2066985805397755 1.165678926229892 -0.6641473297101881
0.7215313859207827 1.620495158369277 -0.5168963310601387
0.6705736122079871 1.651170755555648 -0.5662932630612791
1.738743995639741 0.4500257386699427 -1.639596741234688
0.4901971176483089 0.4083122404273394 -0.6254949028888611
0.5553030667878172 0.4076418316228986 -0.5781693383384434
1.506587631792576 1.770904795942014 -1.636102016193119
1.302954537936899 1.910424623489917 -0.9683165732836179
1.291889064290488 1.591633978525533 -2.001511816009351
0.1745074265586612 1.494698861681789 -0.9782739478004767
1.023612829552274 1.703905220401371 -0.5400986864554816
0.104590465946257 0.9462380607071439 -0.8080142307617469
1.975347701977615 0.7793316830640872 -1.251534323192091
0.9542570073904054 0.2378005976443438 -0.6042758718494413
1.405672152582093 0.2661715245073463 -1.79490905037037
0.7236391975961831 0.6196615646562116 -0.367408712089816
0.939110112169246 1.508546169799396 -2.10887904546701
0.6879457671626993 0.7673411514699918 -0.3288637364813963
0.5281424164472597 1.877711259759364 -1.166493321611993
0.001351783188366262 1.01358698634577 -1.300171036076446
1.614629892824585 1.579286846402619 -0.7145965591898502
0.1662957260773609 0.4573224140008498 -1.147832386260322
1.104930982257275 0.04101683563422576 -1.513326374344709
0.7907940512756848 0.4135509472576264 -0.4674973613105629
0.07082408611126001 0.7391360101258566 -0.9881181567271844
1.896582819193141 0.6599434781801448 -1.533726647136751
1.926378384602712 0.7267645320028422 -1.509163013505487
1.265091465080218 1.963943701990615 -1.226782452018979
1.297696932487937 1.94865198842422 -1.356938960374812
0.1011065630792595 0.7058246504646764 -0.9252671054749936
0.4454665899257286 1.489692706391826 -0.5771747995072949
1.897099873653612 1.25278740154548 -0.887632305095285
1.532241424128741 1.268597069120903 -2.052854084439427
0.95106241446463 1.765021198139458 -1.892143036339441
0.7652503165823233 0.4784859158636545 -0.4296856418526314
0.6864121521200184 1.674467085544775 -1.918398692532188
0.5416701302135885 1.715024807815062 -1.777895117111918
0.8807904588895807 1.664878376295728 -1.987377671239508
1.139574392813943 1.87457992475112 -1.71435863736227
1.439541650745535 1.211493256804368 -0.377031650295286
0.1964493252684887 0.5304423840778635 -0.8841831626782986
1.129452108028236 0.3136508391727962 -0.5343415750800952
0.3216332064934002 0.4324354289682971 -0.7834285143976613
0.8483702717955846 0.7560088459002372 -2.207850062507552
0.9247024893169826 0.7390786314778126 -2.212418996245113
1.180672876965319 1.252435347168385 -0.2994034993599798
1.177335902280894 1.176255839322185 -0.2817614669581399
1.565876728734198 0.7880734895567619 -2.04678772709451
0.6304322018513039 1.76233492528898 -0.7187137266443172
1.787125826014504 0.4738513471781004 -1.57187036078938
1.487791900641183 0.5362564044804705 -1.989595118482728
1.028805389942303 1.767376831785382 -1.890549020410852
0.1811032495586633 1.426998376239959 -0.8664892455157771
1.49801694438273 0.6143396708152744 -0.4733113663759346
0.7726767055310446 0.4926464966165232 -2.08121389689796
0.8208416922406834 0.4362546264170976 -2.05628373078259
0.7452415343721865 0.435354599277346 -2.035031015714485
0.4277264932154162 0.8792731168151758 -2.061127642919999
0.9095284574043383 0.6131191543180111 -2.167680832983206
0.9534115651778762 0.555157298965629 -2.144396158912409
0.9870803817261785 0.6170138431543688 -2.173663730547147
1.017665743034299 0.3878874479505473 -2.040573301564474
1.699545682847051 0.7629644261715547 -0.575870951263875
1.539269374371665 0.6806409927456953 -0.4707706586951833
1.157278971439114 0.5214381863757178 -2.113852947951034
1.268261474646357 0.481661128361577 -0.4379897812409204
1.180496590615707 0.6644525708445392 -0.3254304225407009
1.35931817474413 0.6016586927540222 -0.4060718915451907
1.403719121575822 0.6648392119024435 -0.3987197188963724
1.870526329812489 0.9328438850602171 -0.7624818307699774
1.514953354116121 0.2915908906306465 -0.7673204201055567
1.044882989865624 0.7598232792067723 -2.219691012647706
0.4153815114489264 0.1933667370760825 -1.336971271055289
1.262395613016235 1.213141466868943 -0.3088734105494684
0.3788648146111976 0.2887907243123361 -0.920800292151031
1.597901363319477 0.2152869945835854 -1.086477956008834
0.2871642155878928 0.3313414647498705 -1.038432262150565
1.916261085020615 0.8642886850706694 -0.8731073586855289
0.3380261480393664 0.4456207720484362 -1.75443462503701
0.4159796573840403 1.052641298385261 -0.4399696714844247
0.4644552962036943 1.096012323780803 -0.4109687110018261
1.226136591443593 0.7264444276915605 -0.3151045027013578
0.9057326781962731 1.875720026872133 -1.723527302882341
0.8530101451643906 1.795412966700813 -0.6620270457073579
0.9140205594458359 1.003007792234427 -2.246292371238417
1.313507697748002 0.7660810607892493 -2.170323233071547
1.376773518096251 0.8640897857281971 -0.3337194044846487
0.9910947068740942 1.722506176993498 -1.941307109728073
1.990847925282561 0.9331163697849216 -1.132752531061448
1.260796478782408 0.2335244542442673 -0.6630584063016589
1.184227105732275 0.1181752144967561 -0.8158969924249924
1.45539865608418 1.864650285866108 -1.462113052847721
1.168691012663748 0.01738914302141759 -1.327583799818616
0.7434122366573783 0.07618683145925587 -1.534133682152506
0.5239760584719606 0.135281223757209 -1.089804353663155
1.114830086433311 0.1154325228005422 -0.7979442185629024
1.361394533286632 0.06796870617797324 -1.276676930988713
0.5421615605573205 0.3069858155395468 -0.6931200277390964
0.5350707197359004 1.26458402557034 -2.0948881924646
1.783933029932196 0.4177121306372742 -1.034616988194649
0.6658476100057278 1.509218133641674 -2.043119834975526
0.7104136575530675 1.464170226609157 -2.087069740820806
0.2464283387478714 1.537091819681275 -0.8709721268967625
0.05532712395835093 0.9275310813045936 -0.9300915551375399
0.06617805278965427 0.8521879267776219 -0.924226824434576
0.08298257943671417 0.8983827488800638 -0.864314915172643
1.671492812689101 1.559635525134034 -0.7642989792940176
1.868466164309724 1.489752747888437 -1.326868507107142
0.05453161768493153 1.261694881477566 -1.056079070105957
1.560608317761289 0.2049008001135413 -1.018622437568441
0.1174286424740119 0.7428307451435643 -1.64361373608059
1.159564968482602 0.2639656796175874 -1.907869667983215
0.7814966756321298 1.090250482086272 -0.2783461790723073
0.1362583345653482 1.3568969077324 -1.605773709882033
0.1002885461201651 1.317308239998465 -1.549724507817613
1.87956376759592 0.5301892822590782 -1.174863669052642
0.3071202052415595 1.318145787478941 -1.897070975956197
0.3584065684138832 1.692348887346435 -1.580167967458542
0.8773995129489903 0.2511225654285777 -0.5987306942864724
0.3088726281021794 0.7311749657180641 -1.920877080214347
0.344976362396028 0.7787807156731194 -1.972499870188198
0.2713489968371666 1.361629018427813 -0.6683711074742477
0.7508337722330436 1.121314512972762 -2.210832441106443
0.985595557481197 0.3332731111625292 -1.995162913554365
1.129006132335443 1.27917969019557 -2.201533561364052
0.01331386514406752 1.154944882633717 -1.299422207849145
0.4652386853282365 1.553964747453972 -0.6119142730723525
0.1427576128263127 1.055420564326397 -1.761921918540808
0.9247132906446298 1.618112563419584 -2.032476050967255
1.292720654388768 1.476420572652837 -2.079058536200765
0.3981743480908061 0.3418331606707553 -1.70235196065832
0.5027002971560893 1.83500399666422 -1.485502295330934
1.881910064409003 0.8647050526676356 -0.7984139998622173
1.803913421307749 0.7915547018033211 -0.6929777664213322
1.449185362813225 0.8685646271427999 -0.366282141972767
0.2975014314690493 0.2913398093755758 -1.315547657747016
0.1701866746593185 1.19390649053014 -0.7267313137428103
0.1391896839610691 1.222854039682048 -0.7924612838257858
0.3052209042796463 1.711694991415302 -1.146210562462353
1.701523431295803 1.149842593835031 -1.946715201797516
1.859059287856233 1.495031188341837 -1.11976458808446
1.548222061553685 0.5307917314272851 -1.942312192532258
0.646282284529841 1.707846811023815 -1.861421842827019
0.6797607620725259 1.758578970889863 -1.81745464613069
1.105079675985255 1.85259320710028 -0.7380985593873635
1.404958901090425 1.782503703008016 -1.722965372100726
1.441610750363698 1.732472355405852 -1.768135304461503
0.3310780151948348 0.3074364160124621 -0.9800017400451353
0.8726058347344244 1.949707556925544 -0.9639470626355979
1.709309117601769 0.3039117165216485 -1.361093101906294
1.724704005621594 1.535124325738956 -0.8158962563643982
0.9837977818149255 1.879814263648353 -1.725041418832916
0.04923920557919015 1.285743586862792 -1.129981191644408
0.4919667767481648 1.772038113897091 -0.8680845711907238
1.441111072772319 1.505955119200346 -0.5087642488164663
1.859251962773804 1.335578051001169 -1.636100292871714
1.604273651334985 0.5235499658269961 -1.888630346318454
0.6800314974929337 1.899344107224708 -0.9520061507286141
0.1275263474600352 0.5241561674659385 -1.138813792838909
0.7707524578486399 1.952572606487262 -1.049872556135784
0.03696246517471624 1.051545612705561 -1.514389402829328
1.112103022415624 0.299338102471531 -1.954631689407372
1.185289741012342 1.662880340246963 -1.975435983660619
0.8448247694852183 1.058729726889271 -0.2638603207383875
0.5445463604354057 0.3571057776597402 -0.6341680415171057
1.474320954615866 1.754366287902017 -1.70381839505382
0.4560367202927349 1.007707286252449 -2.089073624939277
0.7564449460340279 1.946487233730231 -1.461761309198181
0.3485284168752429 1.078726678063052 -0.495422710027608
1.987990585345043 0.8679208189685464 -1.169814632209984
0.2389118678461786 1.532452231731619 -1.620458467332879
0.5244258293047082 1.756745867623405 -0.8014858976549503
1.941359143458231 1.138959090341431 -0.9425372636577429
0.3800585684051098 1.322828212681629 -1.965160517987999
1.915192350900954 1.138602872172891 -1.628433884156546
1.622748298884537 0.2513172811916902 -1.022714402580778
1.962410002433219 0.7372062945801545 -1.181396387790451
1.400068689336351 0.084310603160766 -1.211816596158875
1.138213369459553 0.009627486931406026 -1.257703886086563
0.7127524665894764 0.1954493729091177 -1.769795289510436
0.9779384218217111 1.146723680828919 -0.2610685320749992
0.292068326820663 0.6016392668707212 -0.6667835115412049
1.641676244267086 1.74406904563636 -1.063954702104345
1.466286168424235 1.747614041504476 -0.7770830368007628
1.880620516066102 1.473821501481194 -1.250831515231179
0.2213307064548032 1.313779822208124 -0.7066618415159279
1.927493271873347 1.217382828418875 -0.9458603338295306
1.916733698150741 0.6071759112574526 -1.177277500191119
0.2001654444138116 1.489130695984138 -0.9021266811951261
0.8792016718795899 1.755369336981476 -0.6059309597011517
0.3396702638755723 1.704237963740274 -1.51079403754073
0.8008674101276601 0.267813937816446 -0.5986554045707638
0.811400922335568 1.170822471458025 -2.217083280358572
1.712068861923456 1.495061098231572 -0.7521321009577093
0.3315283948080746 0.8665373478198239 -1.981664836878994
0.3793341989341955 0.7107304205790681 -0.521235927196613
0.5916706318509269 0.09877616392971156 -1.104869974141349
1.826210552347325 0.7676018544845541 -1.7631931655341
1.429763925627693 0.611817591198992 -0.434759308101882
1.548120790409492 0.9339265281878341 -2.083785281378582
1.483780171356574 0.936172608190142 -2.122858986238301
1.293500407038862 0.1428496436451387 -0.8267379326365798
0.03661884988041164 0.9736642525060462 -1.516839254979836
1.941177904078371 1.134863123445684 -1.559832359202715
0.760833702945833 0.7379460348920388 -0.3150523000057205
1.698931828834026 1.634849214814255 -1.579333832292475
1.90757547635456 1.064788189759551 -0.835139487071288
1.117265476320056 1.067982497931967 -0.2592289931379904
0.1019675409475546 0.5627886183772955 -1.20117469643941
0.2423670366273126 1.627125128898996 -1.430849013031693
0.1785606092885581 1.570295801883065 -1.249839556343963
1.184254090896623 1.836154270738537 -0.7333797666432673
1.653751459175416 0.2508306542994462 -1.356556656707214
1.022071718274274 1.910390313655313 -1.663161368057327
0.03085944905123683 1.237193682583666 -1.182875120490784
1.45474938957695 1.70688464869658 -0.7082278282188126
0.5893746438073677 1.70526847244272 -0.6720872049954364
1.891934424572256 1.207576602709239 -1.65170254700543
0.3233617804344832 0.2764136168589315 -1.386321186746721
0.6479885341333396 1.836888743998662 -0.8308280089667885
0.5324382511790449 1.588383402049855 -0.5903099339600991
0.7148467878900648 1.392715917719691 -0.3756649077196049
0.5241908542438198 0.2525033356505634 -1.713523886764468
0.1776062551311317 1.019777068652696 -1.818574881573277
0.142829099642691 0.9797120021239162 -1.764632339367456
1.688386797087776 1.713075887055679 -1.117160258600863
0.6093960984131737 1.737435110358925 -1.801015471720231
0.9570258635141331 1.672512106849386 -1.988837390590307
1.220156889322999 1.611496300789149 -2.010002117237056
0.6672915074953868 0.4404971436567271 -2.009118971412931
0.2802412328547541 0.3647594692939812 -0.9699700279150618
1.996951918086352 1.064561372046198 -1.206197006227251
0.9127889222101232 1.399251948288177 -0.3373159858424042
1.194710362484009 1.980857640671516 -1.247517364776362
0.08131200834828478 0.7785150760998161 -0.922957491325871
1.324246560186437 1.531856825293 -2.032299485872587
0.7972884792549794 1.941510817348683 -0.9808059804292513
1.520872893681444 0.8701807171934716 -0.4062948486351894
1.326402061681716 1.227509507707154 -2.167442705585898
1.574580921356268 0.3001302692123242 -1.67431017515559
0.09600635240323541 0.8220520331548311 -0.8612455708286177
0.1252197466514096 1.390130718970195 -1.537328262562482
1.364821393579613 0.07494802142838775 -1.144244679909828
0.7558512107698999 0.2370087211495765 -0.6514720749073846
1.798325818645435 1.434557185475523 -1.666936373845804
0.8597126753417438 1.23580008609718 -2.211622475785997
1.550506602329666 0.4683508299641749 -1.893654908154724
1.644646915528196 0.2919000631317596 -0.9618596978776186
1.159013259042225 1.151767167263561 -2.225541649746214
1.385103510557167 0.5483115847843947 -0.4452187491519443
0.03034912457374961 0.8636919421489743 -1.452971163345899
0.7742162825979362 0.663145487440103 -0.3359153483817053
0.50965180900589 0.5143089609044593 -0.5263544609886012
0.6222892648495426 0.1404544398953725 -0.9057384269824422
0.6654558136272385 0.06633662542046115 -1.122121579877859
0.7035362915988788 0.06974541830480241 -1.466184372321748
0.9085520236648803 1.106742771247685 -0.2599276549612267
0.6040346696756564 0.4321330420644806 -0.528377816813956
1.133193856335772 1.929866869293982 -1.592938772995727
1.600499302429481 0.4986497215421056 -0.6270646212712759
0.509051457110165 1.206977785207645 -0.4037555172026904
0.3095404018384306 0.9613164938441087 -0.5276641157618907
0.259124285817988 1.018556757723961 -1.921385748194038
1.798503797300915 1.131948521792197 -1.837351064775466
0.6048340772810626 1.791931617413935 -0.7845021945681803
1.185277021007137 0.3161883497863105 -1.955743616704219
1.967969874538664 0.864139112394322 -1.461130625927648
1.073458305470499 0.8117869703732855 -0.2706227831748707
0.2057273890417866 1.539598339195037 -1.529221510309612
1.318359463050814 1.51980792986554 -0.4572535283365187
1.098698308363152 1.907307872298806 -1.658718813845002
0.0825485521786774 0.6023756220012333 -1.263330225491452
0.001459446520339802 1.045702277079899 -1.221223882710727
1.918495142423008 1.385463510847509 -1.161769873906635
0.7313732475592409 1.3475136014515 -2.148372954111676
1.083641637879666 1.501901087166848 -0.3891287116452642
1.614564595136579 0.2303417507656514 -1.423021784149079
1.410517034795141 1.796724058376214 -0.8064838909943187
0.9900315926553359 0.4359746640912511 -0.4243026878401299
1.976740430412433 1.176569765886913 -1.371660385386439
1.682061302378946 1.729016012053687 -1.192310885199422
0.6177867348366621 1.90862587623355 -1.081738189205054
1.21147207717447 0.6534413961763272 -2.163880022044087
1.666802396855906 1.726738359054172 -1.415002790965691
0.3723252542780202 1.747433141222161 -1.467642167296739
1.888095035834687 1.453773082881942 -1.176670629502194
0.5997459254705244 1.6212851073101 -0.576352101422983
1.618839166643653 0.9372308687870393 -0.4669941749932127
0.3829020756445163 0.2266119484872328 -1.395124338184327
1.891578359632958 0.8022598238456351 -0.8425851605934747
0.233345842137491 0.427056732339147 -0.9602114317744207
0.6454298280332654 1.787141497696768 -1.754666479722171
1.368955299515802 1.346096212694427 -0.3873938334803194
1.374872675509705 1.125123743799954 -0.3314062236800868
1.96363684217823 1.131349290085483 -1.482704534529968
0.596609106316869 0.4509258969569979 -1.981979109169823
1.55299157224275 0.9363622253036636 -0.4192469953950273
1.348327803723052 1.841946226374177 -0.8379389692681949
1.509994078243141 1.7029028834756 -1.745816071299243
0.1773556880311902 1.267551166519471 -0.748330079355525
1.215114596009754 0.3700169657533466 -1.996221875279022
0.6964820035368021 0.08116531653126724 -0.9977706395403582
0.3207277820896759 1.207387747030687 -1.953974130459866
1.292781412387678 0.04985012964946456 -1.142788673951222
0.01103235947334658 0.8647692365532148 -1.189538056525252
1.837198642158854 1.069156459188165 -0.7074911818966193
0.9428110108228712 0.6695912022592952 -2.19210373414632
0.05325203113871491 0.822440685743518 -1.518590717221945
1.575876388871931 1.668983351345523 -1.71992303663721
1.338627581049208 0.4848247378853195 -0.4626463242875967
0.719807656801142 1.92607689102421 -0.9972672503934894
1.745182314697924 1.428659735336396 -0.7391632852243541
1.827816055274171 0.5359512284126575 -1.565244851216619
1.700783337694194 0.3445846407170121 -0.9683381097376902
0.6638652585257819 0.1783873068273162 -0.7896023262530641
0.7330101970983481 0.1723795825452784 -0.7562785301826448
0.9029467708578713 0.1912739571874208 -1.830123140712204
0.6262743914447266 1.679735073512514 -0.6188982654540329
0.1563863999156863 1.46009459375438 -1.526819541490075
1.802094102478109 0.5646945867205065 -0.8411549829832747
0.8516028558620539 0.2363601364941122 -1.878356941933811
0.02737739119844051 1.225601098098093 -1.305762042510862
1.116232759492454 0.07086604419201548 -0.8990013706787796
1.422807687117366 0.3188065777366906 -1.847669792761575
1.57396961123064 0.216144488805423 -1.486916489408477
0.2522846083795455 0.9882542425373539 -0.5860845458076014
0.8326149300875885 1.710221848837386 -0.5662111701669719
0.2173743536632544 1.059273123209116 -1.869664259547885
1.493162730125523 0.4196322690965435 -1.898046154638012
0.5955797369256508 1.306571108753797 -2.111660261409531
0.14826372693329 1.29543975778706 -0.8172637400665919
1.52348322146946 1.126460010541628 -0.407400936047418
1.482035231205126 1.864505855277205 -1.392378587113539
1.448968839211721 1.353088318030299 -2.070826182018711
1.295003363439824 0.5741967773800248 -2.105373971526861
1.035602647844013 0.06179976877280202 -0.9057431517141202
0.05471899601748387 0.8101160167771466 -0.9846928262838912
0.7889983561169546 0.5901228093246398 -0.3625998676793388
0.9618760111726633 1.998910468024289 -1.276915392387798
1.853426837420324 0.7984232907073056 -0.7693447561489903
1.174816643135896 1.71734280139315 -0.575568056382169
1.209507014632589 1.953886312722914 -1.035040205574102
1.989845946829459 0.9387721355696498 -1.378281526973261
1.748921187579362 1.132467703916713 -0.6007162698682861
0.3111219446857518 0.5111056568994806 -1.785190943674098
0.2679307450702605 0.7195039587042116 -0.629196829257447
1.314475711126351 0.4469735409815929 -2.021535328249548
0.2757062258791934 1.671711969144143 -1.094431496509299
1.016616663937057 1.514353150503475 -2.107417473023936
0.8670302360347529 0.01756799562273215 -1.119055742217192
0.7838879245314344 1.310553784286387 -2.175662961288866
0.09884211455160175 0.574258206339578 -1.331598962156257
0.1299184240370224 1.44483028608954 -1.037669908521474
1.546430215026451 1.197461344535595 -2.063893750756413
1.733414485915163 1.20194455538324 -1.899092896587894
1.819032925327556 1.453624775326656 -1.601297068645936
0.9628495279143992 1.571243657217495 -2.069939343191066
0.2330434460070657 0.4649859046652076 -0.8956871974083115
1.963192467168059 0.9319779312993923 -1.510063971669276
1.94001046036821 1.339532679947874 -1.216865521797361
0.579575925286293 1.331757885787773 -0.405499968846211
0.5531248231715942 0.5119245503908737 -1.999723236817047
1.337767195754125 0.2330648242350953 -0.7043593145238806
1.898217757352134 0.6112543467282885 -1.044861808919807
1.720986243488428 1.692933042323652 -1.245242316053771
1.093162755574718 1.95348698827874 -1.536676235772802
0.9320042476908613 0.003828241323140524 -1.304940011672433
0.784683165686705 0.08623983099458288 -1.594501109432891
0.6622938947937598 0.31069639356975 -0.6090513868735788
0.5236300627422146 1.873292525221327 -1.352136419897955
0.5442665926353982 0.6394051371821009 -0.4361951054944493
1.508403832380733 1.529762625055994 -1.928879300254741
1.947715993570445 0.744904473267485 -1.441730716818784
1.209272345006951 1.974879250182011 -1.173740356807477
0.6074579062666815 1.810840971644147 -1.684105544022001
1.84766582725609 1.132573690316436 -1.763699194021297
1.263765572109101 0.8022879958344623 -2.194106819368871
0.7282442048697622 0.04376970249194478 -1.141499281381235
1.034877083649435 1.751888444273622 -0.5916328103528379
1.653603402596505 1.131120685259649 -1.995392485883318
0.4489075152208154 0.1793674971901055 -1.401193149817948
1.64912104136822 0.876538232244062 -0.4994008622735996
0.2942152674717482 0.7776299347100399 -0.5773786612119989
1.751034090341044 0.4010504917914947 -0.9721380167018349
0.8057019589273403 0.7156361252026268 -2.188821313107852
0.701128607319319 0.7992579920237176 -2.182940800303407
1.275865528602838 1.769172360192564 -0.6735695267905435
1.62697218795875 0.3547662888951976 -1.686553929749971
1.213394183880837 0.02882830057720298 -1.143752870504339
0.5475039780111186 1.879351149909767 -1.101713435414366
1.727193002770576 1.384764771772967 -0.6815403205820053
1.468017913562195 0.2927117071364077 -0.7201863503428824
0.4232895013356047 1.2986296697518 -2.01041128415759
0.2137585385131988 0.9407238161353374 -0.6349303305595848
1.131965604493143 0.01385684521922659 -1.149467629542605
0.5733202103809398 1.826720218180829 -1.616712473174389
1.640328522786903 1.632959386193051 -1.685134230250458
1.603582102062912 0.4460227328020278 -0.6765910416664359
1.000929883079307 0.1257327936130579 -1.735444113316694
0.5180837977744126 0.137384946824475 -1.403792210685239
1.157953389680483 0.7270529159867524 -0.3010265461999947
0.7165314644236127 1.947829095242923 -1.395827279852437
1.28854702773883 0.4271533606017168 -0.4828055393101564
0.2627471452592984 0.9475435717612929 -1.923577427853044
0.07526118723982744 1.377710110878154 -1.296831616620812
1.851252613983841 0.8254254315612287 -1.744866352907626
0.4864019958312924 0.6569613867244171 -2.036474157182476
1.589632187171152 0.2492685456650747 -1.547886165042842
0.2453799439362148 0.5020379009752913 -1.677296523413421
0.8079113536601809 0.5141284523956646 -0.3973389939865293
0.03346500558782706 0.8374438312331253 -1.051541952613415
0.9728160027551169 0.05286924766984491 -1.569694179309391
1.060331750670672 0.8588804675575322 -0.261847502950971
0.9852257411819748 1.069744467452423 -0.2525445220280979
1.363979448808172 1.889598476377638 -0.9740769823449225
1.120140285342589 1.219717351783532 -2.218137695352801
0.127042657548768 1.322200336797686 -0.883759066695242
0.02325240482402535 1.090695253499358 -1.444264011877233
1.578819684649422 1.795796332365028 -1.42797744255021
1.7068875155766 1.704485940986886 -1.313321396650455
0.008171325524581996 1.051027305927383 -1.366927732117444
0.404618142821951 1.029456132371603 -2.052902721635021
0.1169423180396442 0.5528445682221554 -1.392341666993092
1.585545839571578 1.117264932275989 -0.447887161666936
0.8122770764457389 0.154282367201278 -0.7504784393586528
0.1042218900288427 0.7072508632105974 -1.584483961656701
1.705380933066905 0.8747258036758059 -0.5523295082913499
1.979396049737411 1.1252066609402 -1.091549156471289
0.2186016230470371 1.613434488342137 -1.135480547470326
0.2362360387957368 0.508979205727683 -0.8309973852614334
1.286651474495563 0.3926227922159794 -1.990893959776975
1.114389342934812 1.578129201791814 -2.057887185353563
1.297982466327047 1.838808718051264 -0.7943615640852435
1.0486974501219 1.973312392488575 -1.474257764591978
0.2861405745728199 1.681883044032355 -1.409499952946532
0.6956355570480335 1.698554902163486 -0.6024018726633763
1.390776986975499 1.515839334957464 -2.012366792929094
0.5176872690661921 0.5793583362274555 -2.018397696689571
0.00374320284043983 0.934041667040068 -1.194126102458109
0.0327991243400193 1.253921191268626 -1.243181294309914
1.55133948998471 0.3991258017113903 -0.6712297825436937
0.004419341170765589 1.083066122971854 -1.293808343720944
0.6447023451422627 1.368319746020743 -0.3908701255666829
1.751683862551359 1.588109357893635 -1.548494143891981
0.1389163294460054 1.50809309673273 -1.269398900943203
1.997950931505088 0.9398146633055269 -1.27171781653621
1.541158934401682 1.830968481889547 -1.378989882639751
0.9810782070466162 0.4943829294624825 -0.3874495123573992
0.457723586245827 0.760998505545897 -0.4445097289633981
1.963247121739687 1.264301385256026 -1.202044184795235
1.377490995450972 1.531721247850978 -0.4918621082301499
0.9874442052607424 1.430799365904971 -0.3476396183595266
1.435165246864283 1.446242256863915 -0.4680159489410621
0.6313210913088867 0.07898932230272426 -1.375758474282788
1.845985236518226 0.8831336306422737 -1.770241512478911
1.057403685286468 0.05247572497436281 -1.564487782199361
0.8855778209943705 1.992784826103232 -1.285858806600029
1.434369485133909 0.8759540888223327 -2.142152320125103
1.751453608275747 1.323840047863652 -0.6751564578000135
1.765405617831382 0.4475741794175513 -0.9198788813996173
0.06991954415344126 0.750078696629821 -1.519239090352809
0.3962334399595041 1.512114051169461 -1.860905180508129
0.5030662124519669 0.2949636747644084 -1.755945244953898
0.8361435085413351 0.4497566249671076 -0.4312306317165571
1.317105709919733 0.177654665013016 -0.7775678686187328
1.210403734746481 0.08085591902134992 -1.583023162567778
0.3319547129345322 1.280480131888585 -1.939236091659004
0.4827037576896641 1.846208945907898 -1.122191480890161
1.699203534304132 0.8757345848136061 -1.954040143887522
1.599597208826038 0.8428194899645929 -2.034714900096228
0.8963288947231618 1.715724681378045 -0.5593550243453771
1.858984784448216 0.5544269760789406 -1.502209873796199
0.9791701414597679 0.7219436351046136 -2.210338885464062
1.918081870268864 1.117174409023018 -0.8713235716951315
1.803028334783385 0.8838971887476259 -1.834521711106028
1.136277827338971 0.06319479846211185 -1.572217889241623
1.541480705124844 0.2467355538861259 -1.623351470063077
0.6270433078740781 0.2685922432544988 -1.820916805822884
1.237206748360222 0.3762504642432855 -0.5052386454872586
1.991963203712424 1.047166693295377 -1.367406582116012
1.976355181527833 1.13523457889751 -1.418648060096064
1.893229468373691 0.7510903826948189 -0.8755869670513036
1.545276009232648 1.435469870554084 -1.966268152017753
0.3839947436304919 0.3870075339902016 -1.744750200343934
1.361375983077833 0.8054093132113638 -2.161889172799884
0.9144325220140561 1.262214272637082 -2.211208552779536
1.980756212404194 0.8118724136723017 -1.197795947541465
0.65047939366299 1.925158042135105 -1.398047096623165
1.055508267591393 1.296982697080186 -2.203268120658601
1.479921980263667 1.299112606512569 -2.074746349785835
0.7218243150944247 0.2125531133726618 -0.6999584660516752
0.1452786944350354 1.387069182789101 -0.9041258356738691
1.111088682050894 0.007194364806271114 -1.205320301615032
1.948808246665921 1.190124653885845 -0.997778813254063
1.439518547880825 1.897820834922818 -1.277224886542004
1.66134048291392 1.648645083399473 -1.626680662419608
0.5119563949924497 1.801592140554837 -1.59534544996561
1.18820492915591 1.454562310728322 -0.3793956063132075
0.4661053142931921 1.82430270117038 -1.438365393364185
1.754877161290386 0.8817150204530262 -1.895111722863366
1.559324001008756 1.12417001503337 -2.069596528337065
0.0316176043748615 0.7979644432766864 -1.103653938683617
0.5421038769683015 0.1167182063886709 -1.350719479681406
1.702756045371349 0.3862786243352722 -1.609833313836026
1.010125925190316 0.9143713008915202 -2.246275660411329
0.123518623219029 1.457085430797982 -1.098826903490216
0.696350273247468 1.336930627326042 -0.3587791542985584
1.766592797780164 0.5559061161551957 -0.7861938931803319
1.018088334167216 0.8170211157362577 -2.232950426054463
1.389059604296642 0.385926114079375 -1.936691988401557
1.434632890904758 0.3727235311834652 -1.896234076641608
0.5795803729622244 0.6703327981168721 -2.095320574222565
0.2462694219746044 0.5492796444863746 -0.7717308531013378
1.508151567240712 1.856653542229568 -1.339031979065633
1.273007744044589 1.933142716557989 -1.0160952282948
1.158664951347778 1.979577793936161 -1.126497858961998
0.1184072444121286 0.6063335075878149 -1.510424472826328
0.1506485968616891 0.5337403422082967 -1.497394675575175
1.12563941856319 0.8014322886866347 -0.2779991766840546
0.7341902492474881 0.7290382800339412 -2.175162106183518
1.141954166739088 0.09519815727364944 -0.8485244217335112
1.001011493963744 0.9233840730661176 -0.2529398329990195
0.5491324211925992 0.460865830347624 -0.5386261366246331
1.719756077477712 0.8208955747374012 -0.5792744273659666
0.8955672099235797 0.00553501580456528 -1.238459308251746
0.7595810914478219 0.2070753226648625 -1.809883206109585
1.901512078255735 0.8346672512978653 -1.649926311919612
1.00896322424359 1.985490880704622 -1.419491547456466
0.6320574517715878 1.875162475110763 -0.9358202371870752
0.8568933905066866 0.07285706255766733 -1.596304016537682
1.053740611158402 1.455322965525635 -0.3612970441270814
1.917205209161105 0.6265132913414118 -1.111283444596157
0.6494814752924751 1.272080781049863 -2.146163384891481
1.980096124824418 1.188235389850547 -1.186920493724421
1.054116347633677 1.118147491285501 -0.25847965667782
1.160311483850947 1.110382879103548 -0.2691249579348454
0.8876150577018012 0.1436852701459582 -0.7459219225361711
1.775315216586102 1.224106965650025 -0.6595235966804571
1.233775647298974 0.1091300412874079 -1.639486409767234
1.942863451936094 0.6698629055870675 -1.205077734966507
0.3452693830241232 0.7562400838824307 -0.5345218923763332
1.328561946952044 1.188511640755399 -0.3245215246615457
1.179807009878575 1.577904399151658 -2.046050214898336
1.806622359805605 0.5029149635138881 -0.9302081377470069
1.378805634347265 0.2863338679184979 -0.6607742849241943
1.011355895392844 0.0003811205329790068 -1.224837737523743
1.133869121649104 0.2619256821670691 -0.5886942011260213
1.832901122086224 1.395250487038074 -1.637366458697282
1.24167667924642 0.5991974808483311 -2.133713598033944
0.3502160825561325 1.354763913853588 -1.922252501712403
0.6610294249615286 0.151345268041711 -0.8439407737990765
0.9719340778675749 0.07902572652274498 -1.638611234536393
0.1777844960081366 0.5115020266941799 -1.542115379724369
0.9331054974045621 0.1273396794710528 -1.733724188455388
1.667482299578702 0.8224845200517356 -1.973156714777555
0.3161265243735107 1.482916628924998 -1.796908217932645
0.7278510590713967 1.666347601873583 -0.5557984244985004
1.925708714692782 0.7439411218275629 -0.9716167633442876
0.2919924855141782 0.486919326211451 -1.735256202037952
0.9129435999605922 0.4291148473898417 -0.4335985511150443
0.4690067938470915 1.338911932263449 -2.026649803443553
0.8591958222789345 1.985199134788248 -1.347759134349596
0.30762220118168 0.9148044392055756 -1.966487752947963
1.88675660981494 0.6114061364221897 -1.500314850017301
1.187905164841219 0.3299035996625624 -0.5319035835761309
0.3221867015573221 1.706505429836252 -1.453517100181165
1.989454502115898 1.117190194402336 -1.164875111873654
0.3726618102210282 1.423868589154557 -1.903285706848824
1.773190300120942 1.177759349549463 -1.858751487428687
1.91880101899414 0.9016840834695025 -1.632280875864982
0.166317014890076 1.444637771501836 -0.9224791113652639
1.178510437520064 0.844597180835169 -0.2784116162221688
0.6717826012306127 0.1069790662101617 -0.9421251050212405
1.855492346834466 1.11982689218609 -0.7462397788464428
0.4875564894361025 1.81025140369414 -1.534419252675738
1.240126543421985 0.1216108860219891 -0.8367545431718155
1.966030601778118 0.8149337327617078 -1.430375589143019
0.1145836304157404 1.463449785515611 -1.214614285682444
0.4246445255277275 1.811067827755508 -1.144477221536069
1.869700414659536 1.266650709204133 -1.665353569891923
1.626773057871653 1.762846020813911 -1.408812727621562
## Element Component
 1 378 2332
 378 1226 2332
 872 869 1630
 1208 1442 1556
 1511 1384 1595
 101 2157 2205
 2004 1412 2206
 1470 831 1614
 831 1470 1606
 1285 1303 1587
 770 1976 2133
 1177 1513 1514
 1203 1204 2272
 1285 1587 2472
 1247 1897 1983
 1714 1611 1715
 1649 1434 2402
 1927 1459 1944
 1206 1483 1955
 1976 1977 2133
 1569 1117 1570
 1540 641 1541
 1452 1100 1704
 1266 2004 2206
 1497 1356 2202
 1114 872 1630
 810 2152 2212
 1580 660 1918
 1998 1491 2366
 802 1534 1936
 1486 509 2316
 1551 254 2179
 1303 1573 2105
 1534 1327 1936
 1434 1649 2047
 1570 1117 1588
 509 1486 2183
 1956 1443 2175
 2334 1557 2368
 1218 1768 1823
 1100 1452 1703
 1587 1303 2105
 1154 1998 2366
 1479 1962 2122
 1231 1232 1781
 2001 840 2240
 1556 1442 2089
 1443 1956 2390
 1419 1420 2125
 1683 1008 2218
 1193 1600 1982
 1609 1419 2125
 8 92 118
 1982 1600 1983
 1516 1165 2296
 1182 1611 1714
 1553 1580 1918
 2185 1641 2329
 1526 2185 2329
 1715 379 2079
 1384 1511 2039
 1541 641 1543
 1640 1408 1691
 101 1644 2157
 132 131 1607
 1367 1521 2337
 701 1828 2048
 1513 1177 1592
 1573 1303 2052
 1489 1095 1634
 1547 890 1548
 1259 1612 2380
 1530 1142 2067
 1204 1955 2272
 1165 1516 2345
 1489 1634 2379
 967 1519 1781
 1483 1954 1955
 536 1510 2174
 1320 1804 1826
 1519 967 1780
 916 1131 2092
 1527 1200 1567
 1200 1199 1567
 374 1583 2399
 1466 2065 2167
 841 1497 2202
 1348 1259 2380
 2152 1364 2212
 1135 2334 2368
 1079 1640 1691
 1496 1186 1579
 916 2092 2408
 1527 894 1595
 1684 1683 2218
 2092 1488 2227
 1492 1491 1998
 1130 2092 2227
 1170 1524 2470
 128 126 1614
 1645 1453 2157
 1768 344 1823
 117 7 118
 1590 1267 2191
 1138 1573 2052
 1714 1715 2079
 1843 1044 2074
 1172 1533 2162
 90 1531 1535
 1271 1516 2296
 1516 1271 2365
 1571 192 2224
 1044 1843 2362
 2065 1466 2437
 333 1562 1564
 1524 1170 1617
 1521 1367 2351
 1606 1667 2256
 1806 1551 2179
 1682 704 1911
 1897 790 1983
 215 217 1615
 1944 1459 2355
 1531 90 1584
 2393 1492 2434
 1525 1492 2393
 1434 2047 2273
 1644 1645 2157
 1049 1704 1731
 1600 1247 1983
 1505 2351 2504
 2002 2001 2240
 2199 1647 2315
 7 8 118
 1749 1071 2246
 1826 1804 2356
 118 92 464
 1885 1383 2039
 286 1526 1597
 1363 1661 2045
 1204 1206 1955
 242 1371 1664
 1429 1634 2088
 2047 85 2273
 1159 1589 2040
 1159 1494 1589
 1962 1360 2122
 1534 2117 2139
 2117 517 2139
 336 132 1607
 1836 1157 1965
 1607 1606 2256
 340 1972 1985
 1505 1521 2351
 860 1842 1844
 1546 423 1750
 1936 2109 2194
 2109 1890 2194
 1232 1444 1781
 1704 1100 1731
 1519 1231 1781
 744 1558 2129
 1533 1172 2417
 6 7 117
 1809 2276 2361
 1752 1462 2352
 1512 1511 1595
 1290 2223 2232
 1583 374 2343
 1604 181 1656
 1267 814 2191
 542 2266 2327
 732 1570 1588
 290 2244 2397
 1828 701 2214
 2088 1634 2358
 1536 104 2243
 944 1550 1725
 1579 1186 1631
 1585 810 2212
 1665 1371 2077
 1208 1556 1557
 104 1536 2424
 1037 1665 2077
 172 2277 2306
 1510 536 2175
 2157 1369 2205
 1484 1285 2472
 1469 2411 2489
 1469 1570 2411
 894 1527 2297
 1349 2239 2399
 641 1540 1626
 1957 195 2306
 1420 1542 2125
 1605 1639 2298
 890 1547 1669
 812 1489 2015
 1578 1201 2338
 1526 286 2185
 1459 1927 2090
 660 1580 2280
 809 810 1585
 1575 1318 1791
 2244 1574 2397
 1637 469 2303
 1687 1312 2149
 1364 1522 2212
 1142 1530 2435
 469 1637 2392
 109 1604 1656
 1503 1502 2199
 831 128 1614
 1138 1565 1573
 131 831 1607
 1565 1138 1613
 1554 1170 2470
 1842 860 1843
 2224 192 2459
 1405 1528 1845
 1630 869 2209
 1489 812 2440
 1764 2266 2369
 2276 1461 2361
 1696 1844 2121
 1650 1649 2402
 2239 1914 2399
 1522 1364 2242
 1844 1842 2121
 2266 1764 2327
 1594 1947 2348
 1768 1218 2420
 1239 1836 1965
 84 6 117
 1462 1752 2295
 250 215 1615
 1943 1508 2501
 1534 802 2117
 1411 1437 1618
 1617 782 1898
 1947 1594 2404
 1635 1370 1671
 1763 1764 2369
 126 338 1614
 1063 1560 1601
 1914 374 2399
 1643 2263 2279
 1542 1420 2210
 1142 1486 2067
 1177 1514 2430
 369 367 1690
 2199 1502 2495
 1405 1845 2280
 1733 1172 2162
 1155 1414 2002
 1548 890 2464
 1438 2142 2205
 2277 1572 2306
 1829 772 1830
 1510 1478 2174
 1577 419 1749
 1998 1154 2308
 2278 1163 2408
 809 1585 1627
 2307 527 2363
 151 242 1664
 1553 1918 2129
 1608 1408 1640
 2092 1499 2408
 254 1551 2155
 550 2270 2288
 301 312 1679
 1528 551 2407
 1363 150 1661
 192 1571 2277
 1465 1930 2348
 704 1682 2396
 1570 732 2411
 1972 1973 1985
 1480 1203 2272
 922 1124 1598
 333 1564 2208
 1647 2199 2476
 2223 1404 2232
 551 1528 2335
 934 1173 1751
 5 6 84
 1207 2089 2096
 329 1885 2039
 1582 1349 2399
 824 1545 2269
 1661 41 2045
 1201 1293 2338
 1639 1640 2298
 1936 1327 2109
 1942 1508 1943
 1383 1384 2039
 1207 2096 2417
 1977 1760 2133
 2 2207 2291
 1757 556 2126
 1180 1635 1671
 1628 1114 1630
 119 88 120
 177 2372 2402
 1124 1501 1598
 1436 1525 2393
 1791 1318 1792
 1436 1484 2321
 1365 1313 1584
 967 1781 2427
 419 1577 1748
 2372 1650 2402
 1524 1617 1898
 1918 744 2129
 1550 944 2352
 1436 2321 2346
 1689 369 1690
 1592 1085 1892
 1424 1542 2210
 1313 1531 1584
 2300 1352 2339
 1496 1579 2496
 1605 109 1638
 1604 109 1605
 1291 967 2427
 1525 1436 2346
 1545 824 2458
 1792 788 2293
 423 1546 2347
 1615 217 2381
 1498 1981 2255
 1508 1507 2501
 1717 1381 2193
 1962 1479 2468
 134 1653 2164
 1312 1385 2149
 1658 2300 2339
 1157 1353 1965
 1788 2281 2289
 788 1792 2410
 1939 1480 2272
 1812 1507 2386
 1499 2278 2408
 1801 1350 2475
 312 968 1679
 1879 2307 2363
 1272 1620 1621
 120 361 1593
 1560 1063 2204
 195 1957 2375
 122 120 1593
 121 1659 2209
 1930 1465 2169
 1507 1812 2501
 1568 1438 2205
 1503 2199 2315
 1513 1592 1892
 1424 2210 2324
 701 2048 2341
 1350 1801 2310
 1619 1620 1625
 41 88 119
 283 1549 2381
 1326 1554 2470
 1600 1193 2224
 9 86 124
 1411 1618 2374
 1389 1735 2469
 1562 333 2395
 1356 1677 2202
 37 36 1602
 1549 283 2382
 1589 1395 2040
 509 1760 2316
 2234 1563 2249
 1369 1568 2205
 1554 1326 2413
 1414 2304 2429
 1664 1371 1665
 119 120 122
 1138 981 1613
 308 2149 2294
 27 2172 2197
 1363 2170 2260
 2270 1435 2288
 840 2001 2443
 371 369 1689
 1480 1939 2483
 1535 1536 2243
 1760 1977 2316
 379 1715 2249
 1414 1413 2304
 124 86 160
 2002 1414 2192
 1621 1620 1622
 1757 2126 2473
 1172 1207 2417
 1682 1911 2258
 1568 1369 2056
 878 1370 1635
 1495 1989 2301
 561 562 1754
 1173 1577 1751
 1751 1749 2246
 2207 2018 2291
 246 292 1678
 1449 1538 2365
 1541 1543 2275
 141 94 142
 2263 1345 2279
 1572 1957 2306
 1954 1483 2196
 1283 934 1751
 1318 1575 2268
 1435 2270 2378
 707 1539 2303
 1989 1495 2457
 1715 2234 2249
 1519 1780 2252
 2050 2425 2428
 1005 1160 1681
 481 2174 2190
 6 5 1638
 1037 939 1665
 1766 344 1768
 1527 1567 2297
 2170 1334 2260
 1312 1687 2471
 1539 707 2444
 944 1752 2352
 109 6 1638
 340 1985 2360
 1735 1389 2257
 1673 1153 1674
 183 1621 1622
 1593 361 1599
 5 84 2207
 1620 1272 1625
 1583 1582 2399
 1852 1847 2094
 464 92 1091
 118 464 1469
 1371 1372 2077
 889 375 1663
 14 91 1645
 735 1184 1895
 181 86 1656
 1653 96 2164
 2289 1427 2401
 1602 1619 1625
 871 876 1599
 2425 1686 2428
 1452 1451 1703
 365 1079 1691
 1771 1435 2378
 1443 1168 2460
 881 877 2022
 1201 1578 2465
 38 94 141
 134 2164 2228
 1538 1449 2421
 1655 123 1668
 1659 116 2209
 1193 1571 2224
 1956 803 2390
 292 301 1679
 2149 1586 2294
 772 1829 2455
 1160 1471 1681
 1558 744 2479
 1440 1300 1610
 113 1623 1624
 1642 10 2142
 536 1956 2175
 809 1627 1994
 1581 1362 2232
 1585 1366 1627
 1423 1402 2176
 1704 1049 2192
 2173 755 2201
 1349 1348 2239
 2296 1165 2494
 2175 1443 2460
 1596 1166 2345
 1413 1904 2304
 1378 1543 2418
 321 344 1766
 2092 1131 2478
 1981 1498 2474
 1535 2243 2415
 1693 926 1699
 1680 1681 2076
 1071 1749 2442
 34 33 1624
 182 1652 1662
 1619 103 1620
 1580 1501 2280
 725 695 1907
 996 1153 1673
 2281 1427 2289
 410 371 1689
 831 1606 1607
 844 847 1712
 94 37 1602
 1678 292 1679
 1627 1366 2108
 2144 157 2146
 1117 1569 2374
 102 2259 2315
 96 1655 1668
 659 673 1737
 684 685 1719
 1964 1239 1965
 1804 1320 2309
 1930 1125 2348
 1567 1199 2245
 656 561 1754
 274 1234 1854
 1425 1424 2324
 1291 1574 2244
 2142 101 2205
 2 5 2207
 35 103 1619
 2062 397 2136
 1737 1738 1739
 1678 1679 2072
 2176 1402 2221
 1186 1211 1631
 9 8 86
 1559 1162 2469
 106 123 1655
 90 1535 2415
 685 731 1719
 1679 968 2072
 1798 509 2183
 1737 673 1738
 120 88 121
 1715 1611 2234
 1730 1253 1832
 1933 315 2069
 375 1344 1663
 1780 1346 2252
 1494 1495 2301
 1000 1003 1680
 183 1622 1623
 32 33 130
 1577 1749 1751
 2101 584 2116
 1307 2046 2177
 33 113 1624
 736 735 1895
 180 1336 1632
 1427 1426 2401
 782 1617 2130
 2222 1260 2287
 1381 1505 2193
 1681 1471 2076
 1917 783 2147
 1438 1642 2142
 125 87 126
 1271 1449 2365
 1177 889 1663
 877 873 2022
 1777 1933 2069
 1543 1378 2384
 404 432 1867
 926 384 1699
 1367 1043 1993
 319 321 1766
 2172 1430 2197
 1403 2062 2136
 13 14 1645
 100 131 132
 1170 1282 1617
 1464 1417 2217
 1652 115 1662
 1854 1234 1855
 695 709 1907
 881 2022 2065
 100 32 130
 1180 1593 1599
 1597 1756 2438
 361 871 1599
 857 890 1669
 1834 1833 2104
 1982 1983 2320
 1441 1581 2357
 1008 1683 2412
 2251 1862 2313
 1245 1805 2475
 17 83 129
 34 87 125
 1723 1233 2138
 160 1030 1616
 1438 1091 1642
 846 844 1712
 1385 1586 2149
 1814 1441 2357
 160 86 181
 564 567 1755
 1468 1952 2461
 1440 1578 2349
 100 130 131
 142 94 144
 141 142 2132
 1412 2004 2431
 1003 1005 1681
 651 1928 2102
 1592 1177 1663
 286 205 2010
 277 274 1854
 968 314 1932
 788 697 1734
 1168 1560 2204
 1706 2294 2302
 1041 904 1697
 129 83 157
 765 1126 1887
 649 659 1737
 1018 1298 1851
 97 1391 1660
 464 1091 1411
 103 34 1624
 355 1041 1840
 225 228 1721
 1388 1148 1986
 728 1833 1834
 745 705 1718
 579 809 1994
 1690 367 1691
 594 1730 1832
 2068 734 2075
 31 93 1648
 558 583 1810
 1366 1367 2108
 1904 1413 2481
 1484 1794 2321
 199 2011 2023
 725 1907 1910
 1007 1008 1670
 1888 1246 2057
 2356 1245 2400
 758 1233 1723
 2174 1478 2190
 30 31 135
 917 1251 1915
 949 1429 2016
 406 404 1867
 1712 847 2052
 1043 746 1993
 18 104 1651
 1755 567 2078
 2011 2012 2023
 1425 2324 2432
 1239 902 1836
 2008 2095 2440
 1675 1037 1676
 30 135 2027
 264 290 1861
 2217 1417 2264
 572 571 1724
 1282 1061 1873
 120 121 361
 17 16 83
 674 691 1740
 686 1870 1875
 29 110 1643
 901 1246 1888
 1680 1003 1681
 1602 36 1619
 1571 1572 2277
 807 2006 2503
 126 87 127
 125 126 128
 289 914 1808
 314 316 1932
 1803 661 1804
 1333 1546 1750
 1981 905 2255
 686 664 1870
 1774 451 2202
 1894 1893 2102
 1794 1484 2472
 1811 730 1812
 1305 2100 2128
 981 843 1711
 256 1726 2058
 5 99 1638
 182 83 1652
 762 765 1887
 33 125 130
 160 181 187
 296 355 1840
 1636 1261 1637
 228 973 1721
 1148 1094 1986
 1632 1336 1633
 142 144 145
 576 579 1994
 1584 90 2198
 223 225 1721
 681 786 1880
 157 83 182
 1739 1738 2165
 705 684 1719
 1411 1091 1437
 464 1411 1569
 1754 562 1755
 1847 1852 2341
 553 558 1810
 1913 1442 2376
 1014 1693 1699
 764 917 1915
 145 144 2024
 1623 1622 1624
 1735 1559 2469
 1317 1425 2135
 1166 1165 2345
 2006 1506 2503
 135 136 2027
 1586 1385 2211
 262 264 1861
 361 121 869
 1029 1189 1672
 1707 444 2029
 126 127 338
 127 87 133
 1477 1062 1797
 623 661 1803
 1362 1290 2232
 585 730 1811
 1061 888 1873
 1216 2002 2192
 160 187 1030
 187 181 188
 275 832 1701
 142 145 146
 157 182 186
 508 506 1872
 1437 1091 1438
 420 402 1779
 24 114 137
 84 117 665
 790 306 1922
 1431 2173 2201
 567 569 2078
 1394 2101 2116
 361 869 871
 1146 1474 1708
 127 133 134
 1041 1697 2121
 1030 187 1538
 188 181 1604
 187 188 194
 146 145 147
 186 182 189
 1437 1438 1568
 84 665 666
 871 869 872
 194 188 197
 25 24 137
 147 145 148
 146 147 149
 186 189 193
 189 182 1662
 666 665 698
 871 872 873
 197 188 1268
 194 197 200
 147 148 154
 146 149 1334
 193 189 198
 186 193 1031
 666 698 699
 871 873 876
 873 872 874
 194 200 309
 200 197 201
 154 148 155
 193 198 199
 198 189 1219
 699 698 717
 876 873 877
 874 872 1114
 309 200 1368
 200 201 269
 154 155 196
 155 148 161
 199 198 202
 699 717 718
 717 698 732
 876 877 878
 874 1114 1154
 309 1368 1516
 269 201 270
 155 161 162
 154 196 928
 199 202 203
 699 718 719
 718 717 749
 878 877 879
 874 1154 1209
 270 201 363
 162 161 163
 154 928 2025
 928 196 949
 203 202 204
 699 719 2017
 719 718 720
 749 717 1133
 718 749 1529
 878 879 880
 879 877 881
 270 363 364
 162 163 164
 163 161 1272
 928 949 980
 949 196 1339
 203 204 205
 204 202 1022
 719 720 721
 749 1133 1446
 879 881 887
 878 880 1370
 270 364 860
 364 363 365
 928 980 1269
 949 1339 1429
 162 164 2015
 164 163 165
 163 1272 1621
 203 205 206
 204 1022 1023
 1022 202 2020
 1446 1133 1488
 721 720 722
 719 721 2014
 887 881 1084
 364 365 366
 365 363 1079
 1269 980 1312
 164 165 166
 206 205 207
 1023 1022 1033
 721 722 723
 722 720 855
 411 410 412
 887 1084 1086
 325 324 326
 1023 1033 1134
 1312 980 1385
 326 324 379
 325 326 327
 1269 1312 1422
 1023 1134 1191
 164 166 812
 166 165 167
 207 205 286
 206 207 208
 366 365 367
 1033 1022 1309
 403 410 411
 1101 926 1143
 1074 889 1177
 847 981 1138
 721 723 840
 723 722 746
 1191 1134 1509
 412 410 938
 1024 1165 1166
 887 1086 1087
 1086 1084 1467
 323 328 329
 327 326 330
 425 407 1698
 906 889 1074
 1049 1048 1216
 1269 1422 2066
 166 167 168
 167 165 183
 1099 955 1281
 1202 1015 1578
 208 207 209
 1211 1387 1628
 206 208 811
 191 190 825
 1284 958 1364
 225 224 226
 229 227 2007
 43 42 95
 228 227 229
 1220 1038 1300
 832 1257 1258
 678 1169 1208
 978 1094 1146
 1211 908 1387
 885 1308 1412
 409 407 425
 226 224 260
 97 12 140
 1134 1179 1271
 397 388 398
 334 332 335
 225 226 227
 408 1015 1202
 97 158 1391
 98 21 139
 327 330 331
 723 746 747
 334 335 339
 239 237 240
 875 1285 1436
 885 1241 1308
 1999 1407 2000
 174 176 192
 239 240 241
 412 938 1048
 1366 1043 1367
 875 1109 1285
 185 190 191
 957 958 1284
 22 21 98
 1146 1094 1147
 1236 1237 1238
 1236 1235 1237
 442 443 444
 228 229 230
 1122 1074 1338
 456 460 461
 1424 1143 1542
 1101 1143 1317
 821 449 1774
 1086 1467 1468
 900 1163 1164
 1515 1776 1777
 375 1104 1344
 442 441 443
 1083 1375 1466
 230 229 231
 1514 990 1515
 1515 990 1776
 1083 1081 1375
 1072 1073 1113
 892 1038 1220
 959 960 1115
 396 388 397
 208 209 210
 1238 1237 1332
 974 1199 1200
 97 140 158
 375 350 1104
 168 167 169
 1333 1332 1354
 974 956 1199
 259 1181 1182
 1149 1151 1217
 951 1055 1152
 275 274 277
 1072 866 1073
 331 330 332
 1211 1628 1629
 13 12 97
 1238 1332 1333
 1565 1566 1573
 1317 1143 1424
 832 1258 1398
 1324 942 1390
 1146 1147 1473
 1050 741 1306
 1399 1258 1431
 1113 1073 1321
 453 456 457
 1115 960 1116
 220 218 276
 943 942 1324
 241 240 324
 1542 1143 1693
 1333 1354 1463
 900 670 1163
 1398 1258 1399
 226 260 273
 1323 1043 1366
 1136 1407 1999
 1173 1235 1236
 930 929 1092
 397 398 399
 1099 1281 1586
 1082 1083 1491
 98 139 159
 225 227 228
 1146 1473 1474
 485 484 486
 1173 933 1235
 260 224 1727
 1436 1285 1484
 327 331 340
 1565 947 1566
 747 746 1042
 334 339 808
 339 335 389
 1384 1200 1527
 974 1200 1383
 1103 759 1741
 892 1220 1609
 487 486 488
 398 388 1702
 259 1102 1181
 1293 927 1294
 955 376 1376
 1113 1321 1582
 412 1048 1049
 1048 938 1136
 1383 1200 1384
 1220 1300 1440
 485 486 487
 1135 947 1565
 223 222 224
 986 1090 1286
 332 330 333
 1147 1094 1148
 486 484 774
 331 332 334
 1161 1020 1343
 1208 1169 1442
 1164 1163 1547
 1096 813 1259
 228 230 973
 475 476 477
 223 224 225
 98 159 184
 1194 1058 1195
 540 539 546
 184 159 185
 473 474 475
 825 1280 1335
 210 209 211
 1134 1033 1179
 1301 1092 1487
 487 488 489
 794 792 1253
 497 496 498
 453 452 456
 475 477 1757
 1344 1104 1517
 1107 861 1248
 1384 1527 1595
 1107 1248 1249
 489 488 490
 241 324 325
 168 169 170
 1197 1511 1512
 1164 1547 1548
 259 232 1102
 483 482 484
 483 484 485
 906 1074 1122
 1059 1329 1346
 429 425 748
 780 782 1121
 216 214 975
 1088 1244 1245
 1060 1401 1559
 390 389 391
 1063 1062 1176
 547 546 552
 497 498 499
 1103 1741 1742
 540 546 547
 439 438 441
 1249 1248 1369
 212 211 213
 453 457 841
 499 498 500
 1160 1007 1178
 220 276 2030
 1333 1463 1546
 439 442 712
 948 741 1050
 1301 1487 1598
 1323 1366 1585
 489 490 491
 895 979 1060
 185 159 190
 454 455 692
 1144 1092 1301
 475 474 476
 390 391 392
 1116 960 1129
 1115 1116 1117
 477 476 478
 1346 1329 1549
 490 488 510
 461 460 678
 537 539 540
 168 170 195
 900 1164 1373
 1160 1178 1470
 1027 866 1072
 1629 1628 1630
 273 260 274
 491 490 492
 1113 1582 1583
 477 478 479
 1173 1236 1577
 399 398 401
 1088 893 1244
 832 278 1257
 391 389 393
 547 552 553
 178 180 1441
 210 211 212
 288 279 1856
 1097 913 1247
 500 498 509
 499 500 501
 747 1042 1145
 1042 746 1043
 339 389 390
 678 1078 1169
 957 1284 1377
 553 552 557
 1447 935 1533
 710 677 1923
 1546 1463 1594
 1248 861 1886
 1306 741 1773
 935 751 1575
 477 479 556
 1225 983 1530
 1136 938 1137
 1060 1307 1401
 441 438 989
 950 898 1913
 491 492 493
 342 318 343
 1103 1742 1743
 1171 934 1283
 1147 1148 1149
 636 634 1853
 170 169 171
 564 566 567
 241 325 807
 1360 1123 1822
 680 658 1794
 541 538 542
 631 632 633
 487 489 803
 882 424 1125
 10 9 124
 712 442 1707
 493 492 494
 466 468 469
 276 218 1709
 501 500 502
 1096 1259 1348
 761 759 1103
 631 630 632
 1232 1230 1299
 1107 1249 1250
 934 933 1173
 553 557 558
 1470 1178 1606
 633 632 634
 552 546 988
 1487 1092 1725
 382 381 383
 1176 1478 1510
 633 634 635
 1359 1123 1360
 1369 1248 2056
 459 463 1261
 558 557 581
 380 372 381
 210 212 352
 275 277 278
 469 468 470
 750 935 1447
 428 429 819
 390 392 421
 493 494 495
 275 278 832
 1105 263 1926
 494 492 770
 1950 1923 2098
 540 547 806
 391 393 394
 400 413 414
 539 538 541
 961 959 1618
 414 413 417
 478 476 859
 838 429 1752
 382 383 385
 170 171 172
 466 467 468
 635 634 636
 1116 1129 1130
 692 455 693
 483 485 536
 678 460 1078
 537 535 538
 400 414 415
 299 284 1899
 428 425 429
 1054 1325 1326
 1426 1255 1558
 635 636 637
 501 502 503
 481 482 483
 729 689 1875
 495 494 496
 274 260 1234
 35 34 103
 1221 1493 1506
 18 17 129
 414 417 418
 399 401 402
 468 467 660
 558 581 582
 630 628 1952
 1392 1118 1393
 747 1145 1155
 499 501 517
 1059 1328 1329
 405 407 409
 418 417 423
 841 457 842
 1057 1058 1159
 624 622 1954
 623 625 661
 318 317 319
 966 1026 1059
 637 636 638
 539 541 1799
 1142 1141 1183
 911 1054 1524
 1495 1194 1761
 582 581 650
 469 470 471
 1159 1058 1194
 637 638 639
 1149 1148 1150
 418 423 424
 495 496 497
 171 169 1305
 965 967 1291
 321 323 344
 256 253 1726
 172 171 173
 383 433 1576
 627 629 771
 1176 1062 1477
 796 794 1889
 339 390 1931
 1311 1290 1362
 366 368 1044
 503 502 504
 471 470 472
 394 393 395
 1183 1141 1240
 383 381 433
 38 37 94
 825 190 1280
 1176 1477 1478
 372 298 885
 639 638 644
 1171 1283 1562
 639 644 645
 352 212 813
 428 819 907
 819 429 838
 631 633 641
 417 413 419
 619 621 772
 421 392 422
 1096 1348 1349
 692 693 724
 399 402 420
 172 173 174
 1256 1255 1426
 11 12 101
 1417 1111 1418
 471 472 473
 583 582 584
 1562 1283 1564
 257 258 261
 493 495 1935
 504 502 773
 503 504 505
 473 472 474
 650 581 651
 559 560 561
 554 555 559
 1250 1249 1453
 1799 541 1987
 265 266 267
 405 406 407
 830 827 1881
 439 712 1753
 559 555 560
 447 445 458
 1149 1150 1151
 394 395 400
 474 472 551
 1124 1123 1359
 495 497 802
 634 632 643
 501 503 1934
 613 615 701
 372 885 1786
 558 582 583
 14 15 91
 395 393 1071
 174 173 175
 1076 1168 1443
 602 561 656
 1289 1290 1311
 793 792 794
 1289 1027 1290
 421 422 434
 1250 1453 1472
 819 838 839
 639 645 646
 352 813 814
 463 465 466
 650 651 667
 621 620 622
 692 724 728
 297 298 372
 559 561 602
 904 1016 1017
 629 630 631
 466 465 467
 355 903 904
 447 458 459
 667 651 668
 780 781 782
 793 794 795
 174 175 176
 471 473 707
 795 794 796
 402 401 404
 418 424 864
 1017 1016 1018
 724 693 750
 1017 1018 1019
 400 395 413
 1151 1150 1192
 402 404 405
 904 903 1016
 602 656 670
 1019 1018 1020
 505 504 506
 688 705 706
 459 458 462
 503 505 775
 435 437 894
 175 173 1345
 355 904 1041
 706 705 745
 740 729 741
 355 295 903
 1019 1020 1021
 18 19 104
 348 359 360
 287 296 297
 176 175 177
 352 814 1267
 740 741 948
 297 296 298
 667 668 694
 688 684 705
 795 796 797
 750 693 751
 463 462 465
 467 465 744
 670 656 916
 694 725 726
 915 357 924
 709 708 713
 728 724 815
 857 752 890
 839 838 929
 289 357 914
 360 359 883
 753 745 849
 706 745 753
 728 815 816
 750 751 935
 1021 1020 1161
 864 424 882
 1024 1021 1025
 11 10 107
 459 462 463
 703 733 739
 462 458 822
 519 516 520
 916 656 972
 695 708 709
 769 768 835
 282 288 289
 695 668 708
 834 833 931
 176 177 178
 360 956 974
 726 833 834
 797 796 798
 694 668 695
 920 757 933
 1019 1021 1024
 709 713 714
 800 896 982
 714 736 737
 726 725 833
 911 1053 1054
 24 23 114
 735 713 919
 798 799 800
 816 898 923
 920 933 934
 29 28 110
 515 514 516
 797 798 936
 951 952 1055
 814 813 1096
 858 953 1062
 15 14 115
 360 883 956
 849 745 927
 931 833 932
 1066 1067 1068
 520 516 970
 715 689 729
 714 735 736
 780 779 781
 920 934 1171
 16 17 112
 694 695 725
 923 898 950
 178 177 179
 914 357 915
 368 369 370
 856 752 857
 816 815 898
 853 940 976
 1039 862 1040
 986 923 1089
 683 700 703
 849 927 1201
 1106 861 1107
 33 32 113
 711 817 818
 816 923 986
 818 946 1012
 1057 918 1058
 19 18 108
 1 43 138
 726 834 901
 738 752 856
 858 789 953
 818 817 946
 867 848 868
 901 902 1032
 912 985 1065
 986 1089 1090
 1151 1192 1193
 863 376 955
 505 506 507
 676 677 681
 706 753 754
 715 729 740
 797 936 937
 886 888 1061
 883 359 884
 515 516 519
 754 848 867
 798 796 799
 800 799 895
 901 834 902
 929 838 944
 856 959 961
 915 924 977
 917 918 1057
 946 947 1135
 518 513 962
 858 1062 1063
 951 884 952
 912 984 985
 1090 1196 1197
 356 288 376
 743 716 921
 756 757 909
 767 766 768
 800 895 896
 1055 952 1056
 7 6 109
 769 1139 1162
 839 929 930
 940 941 1051
 1076 1167 1168
 23 24 111
 733 734 853
 737 736 738
 784 910 911
 1140 835 1141
 1035 893 1088
 738 736 752
 781 779 783
 922 1123 1124
 289 356 357
 683 679 700
 714 713 735
 787 789 858
 669 679 683
 703 700 733
 1139 835 1140
 883 884 951
 888 893 1035
 937 936 1111
 756 909 945
 856 857 959
 1066 985 1067
 178 179 180
 354 353 373
 374 373 865
 512 514 515
 690 716 742
 742 716 743
 853 854 940
 945 909 1045
 937 1111 1112
 865 373 913
 853 734 854
 909 757 920
 781 783 784
 787 788 789
 888 830 893
 959 857 960
 1140 1141 1142
 756 431 757
 765 766 767
 957 867 958
 911 910 1053
 1064 913 1097
 1051 941 1052
 991 954 1077
 978 977 1093
 1068 1075 1076
 180 179 1336
 737 738 861
 737 861 1106
 768 766 824
 863 1099 1243
 742 743 1215
 941 854 987
 982 896 983
 767 768 769
 769 835 1139
 912 785 984
 898 815 899
 1076 1075 1167
 307 354 897
 537 538 539
 743 921 922
 754 867 957
 940 854 941
 1093 977 1095
 922 921 1123
 978 1093 1094
 1065 985 1066
 1068 1067 1075
 784 783 785
 891 1069 1070
 1090 1089 1196
 5 2 99
 953 789 954
 865 913 1064
 891 1039 1069
 953 954 991
 754 753 848
 514 513 518
 602 670 900
 829 830 886
 37 38 96
 946 817 947
 662 793 1110
 765 767 1126
 1080 1081 1082
 969 654 1080
 863 955 1099
 1098 1061 1170
 356 376 863
 512 508 513
 786 697 787
 952 884 1085
 787 697 788
 886 1061 1098
 353 306 790
 354 373 374
 512 513 514
 507 508 511
 733 700 734
 895 799 979
 1082 1081 1083
 917 763 918
 910 785 912
 886 830 888
 891 862 1039
 351 889 906
 681 682 697
 511 508 512
 683 703 704
 711 710 817
 965 966 967
 829 827 830
 507 506 508
 1080 654 1081
 25 26 102
 11 101 2142
 778 779 780
 805 827 829
 966 964 1026
 765 764 766
 755 431 756
 681 697 786
 915 977 978
 847 843 981
 784 785 910
 307 353 354
 351 375 889
 404 401 432
 827 826 828
 764 763 917
 690 715 716
 762 764 765
 416 431 755
 21 22 90
 39 40 106
 662 792 793
 682 710 711
 296 295 355
 644 638 654
 307 306 353
 349 347 990
 778 657 779
 304 305 362
 348 349 359
 644 654 969
 777 862 891
 642 612 1945
 289 288 356
 434 422 435
 669 603 679
 704 703 1911
 864 882 1046
 1494 1194 1495
 690 689 715
 435 422 436
 762 763 764
 1229 1231 1292
 305 303 306
 305 306 307
 368 367 369
 663 684 688
 31 30 93
 408 1013 1015
 1231 1230 1232
 366 367 368
 554 549 555
 618 616 791
 674 676 691
 267 279 282
 16 112 1657
 348 347 349
 685 664 686
 762 761 763
 293 284 299
 687 689 690
 304 303 305
 965 964 966
 416 430 431
 351 350 375
 681 677 682
 758 565 759
 1186 908 1211
 687 686 689
 346 347 348
 805 826 827
 682 677 710
 505 507 1905
 844 843 847
 31 32 100
 1052 941 1902
 845 844 846
 1183 1240 1523
 845 846 850
 760 761 762
 316 317 318
 842 844 845
 617 618 619
 646 657 778
 607 609 702
 541 542 543
 676 675 677
 294 303 304
 850 908 1186
 674 675 676
 662 598 792
 1007 1006 1008
 760 759 761
 685 687 731
 282 279 288
 622 620 640
 314 313 315
 43 1 116
 619 620 621
 777 776 862
 346 341 347
 446 447 448
 604 603 669
 606 604 1927
 605 606 607
 842 843 844
 446 448 454
 294 293 302
 577 942 943
 1549 1329 1615
 685 686 687
 615 616 617
 264 272 290
 591 604 605
 33 34 125
 1229 1230 1231
 684 664 685
 312 314 968
 984 785 1917
 408 406 1013
 294 302 303
 285 284 293
 606 1927 1944
 287 295 296
 297 372 380
 416 396 430
 328 341 346
 605 604 606
 261 258 265
 285 293 294
 613 614 615
 619 618 620
 614 612 642
 613 612 614
 651 581 1928
 758 759 760
 435 436 437
 617 616 618
 272 284 285
 963 964 965
 280 350 351
 591 603 604
 932 833 1910
 271 263 1105
 1035 1088 1350
 323 322 328
 1171 1562 1563
 437 436 438
 1311 1362 1632
 842 457 843
 805 804 826
 566 565 758
 1227 1480 1481
 1195 1058 1970
 8 9 92
 272 271 284
 405 404 406
 611 612 613
 615 614 616
 264 271 272
 674 672 675
 823 1027 1289
 663 664 684
 316 318 342
 621 622 623
 432 401 1951
 257 256 258
 267 268 279
 1276 1274 1277
 255 256 257
 1066 1068 1357
 1657 112 1658
 850 851 908
 550 548 1758
 591 590 603
 1005 1007 1160
 607 608 609
 257 261 262
 534 533 535
 1232 1299 1358
 646 647 657
 518 1395 1589
 663 601 664
 975 214 1756
 264 263 271
 328 322 341
 599 598 662
 262 263 264
 40 39 105
 1005 1006 1007
 1006 1004 1009
 316 315 317
 1009 1004 1694
 446 445 447
 618 791 1939
 545 776 777
 249 252 358
 1160 1470 1471
 585 584 586
 925 926 1101
 611 610 612
 1535 1532 1536
 265 258 266
 313 311 820
 1119 1118 1392
 588 586 653
 312 313 314
 577 575 942
 623 624 625
 439 441 442
 1395 962 1396
 548 549 554
 345 449 821
 607 606 608
 930 1092 1144
 937 1439 1831
 1229 1228 1230
 28 29 89
 609 610 611
 809 592 810
 262 261 263
 1386 1507 1508
 387 396 416
 945 1045 1544
 600 599 601
 589 590 591
 610 608 801
 1098 1170 1554
 597 599 600
 380 381 382
 767 769 1909
 518 962 1395
 287 277 295
 213 215 250
 1064 1097 1581
 314 315 316
 866 191 1710
 1038 427 1100
 690 742 1925
 1193 1192 1571
 1254 1255 1256
 600 601 663
 671 680 1108
 1386 1278 1507
 515 519 1374
 1553 1302 1580
 304 362 963
 583 584 585
 534 535 537
 549 544 655
 600 663 1863
 1112 1111 1417
 302 293 1882
 279 268 280
 647 645 648
 280 268 350
 948 1118 1119
 1490 1213 1826
 1396 1520 1545
 673 672 674
 1168 1167 1560
 356 863 1891
 625 624 626
 963 362 964
 1098 1554 1555
 597 595 598
 646 645 647
 850 846 851
 609 608 610
 589 588 590
 851 846 852
 1292 1231 1519
 1159 1194 1494
 321 322 323
 623 622 624
 1204 1205 1206
 564 565 566
 526 804 805
 1174 1040 1175
 437 438 439
 1142 1183 1486
 692 728 1834
 628 626 652
 407 406 408
 1485 1196 1823
 597 598 599
 345 440 449
 1157 1156 1352
 1532 1314 1964
 1222 1056 1223
 1531 1532 1535
 1256 1427 1428
 1222 1223 1551
 1561 1167 1824
 1157 1352 1353
 823 866 1027
 958 867 1904
 1224 983 1225
 545 777 1415
 1139 1140 1389
 1405 1359 1528
 385 383 386
 267 266 268
 1051 1052 1313
 1275 1274 1276
 273 274 275
 973 1229 1825
 576 575 577
 1256 1426 1427
 1032 902 1198
 1119 1392 1479
 1175 1273 1274
 255 253 256
 564 563 565
 319 320 321
 1056 952 1916
 1331 1294 1416
 875 852 1109
 1544 1045 1611
 1332 1237 1403
 213 211 214
 1361 434 1567
 593 580 594
 1175 1275 1848
 252 253 255
 1070 1212 1213
 710 1923 1950
 280 351 2060
 1054 1053 1325
 1345 173 1940
 221 222 223
 587 588 589
 931 1156 1157
 1396 962 1397
 302 1882 1883
 865 1064 1404
 828 826 1120
 1539 1476 1636
 1051 1313 1365
 1070 1213 1421
 1276 1278 1386
 1005 1004 1006
 1046 882 1047
 1572 1192 1957
 1341 1067 1871
 868 848 1451
 1531 1314 1532
 301 310 311
 1112 1417 1464
 1124 1359 1405
 1039 1040 1174
 545 523 776
 1213 1212 1320
 1276 1277 1278
 1257 278 1837
 345 343 440
 1396 1397 1520
 301 311 312
 925 384 926
 1347 1247 1600
 884 359 1892
 973 230 1228
 312 311 313
 1175 1040 1273
 937 1112 1439
 1170 1061 1282
 1351 1350 1540
 1221 1222 1493
 1175 1274 1275
 1070 1069 1212
 1313 1314 1531
 1328 1330 1612
 901 1032 1246
 1093 1095 1448
 758 760 1233
 562 563 564
 587 586 588
 248 243 1263
 1336 179 1434
 1421 1213 1490
 1198 902 1239
 1314 1052 1537
 1232 1358 1444
 973 1228 1229
 1552 1302 1553
 403 371 410
 1254 1046 1255
 1135 1565 1613
 585 587 730
 1158 932 1400
 1144 1301 1302
 1156 932 1158
 1124 1405 1501
 1560 1167 1561
 839 930 1465
 1227 1203 1480
 387 388 396
 1279 1315 1460
 579 592 809
 625 626 627
 349 990 1513
 1560 1561 1601
 1197 1196 1485
 533 530 696
 596 595 597
 931 932 1156
 1144 1302 1552
 1199 956 1262
 342 343 345
 321 320 322
 1337 1842 1843
 627 628 629
 319 317 320
 426 892 1014
 892 427 1038
 1246 1319 1394
 548 544 549
 532 534 1260
 1212 1069 1214
 1212 1214 1830
 1325 1327 1534
 671 658 680
 1075 1067 1341
 982 983 1224
 659 672 673
 421 434 1361
 278 277 287
 585 586 587
 753 849 1979
 481 480 482
 1444 1445 1574
 543 548 550
 444 445 446
 532 533 534
 629 628 630
 1279 1460 1461
 1313 1052 1314
 948 1050 1118
 1246 1032 1319
 1161 1343 1500
 1475 1476 1539
 1407 2250 2291
 1097 1247 1347
 370 369 371
 991 1187 1355
 1047 882 1930
 596 597 1966
 1108 680 1587
 40 41 119
 1184 1185 1771
 864 1046 1254
 1242 1224 1432
 574 572 575
 1187 1188 1475
 1204 1011 1205
 524 529 531
 526 511 804
 252 251 253
 456 452 460
 341 322 1968
 1444 1358 1445
 627 626 628
 1321 1322 1590
 593 594 595
 249 251 252
 849 1201 1610
 1458 1684 1685
 1475 1188 1476
 532 530 533
 593 595 596
 1476 1188 1498
 1221 1056 1222
 1685 1684 1686
 450 727 1995
 1010 1203 1227
 1278 1277 1279
 823 191 866
 1279 1277 1315
 491 493 527
 1018 1016 1298
 451 452 453
 570 568 571
 1458 1683 1684
 507 511 526
 1517 1104 1518
 1130 1129 1499
 1331 1416 1462
 1060 979 1307
 1328 1026 1330
 573 1265 1978
 1351 1540 1541
 635 637 1378
 850 1186 1496
 1055 1056 1221
 1325 1053 1327
 870 852 875
 1335 1280 1410
 213 214 215
 982 1224 1242
 427 411 1731
 1059 1026 1328
 917 1057 1251
 592 580 593
 215 214 216
 1185 919 1287
 1131 1132 1717
 451 450 452
 1003 1004 1005
 238 237 239
 1571 1192 1572
 1321 1073 1322
 301 300 310
 1185 1287 1340
 1419 1013 1420
 482 480 525
 249 248 251
 521 523 545
 384 371 403
 524 528 529
 1185 1340 1435
 370 384 925
 1122 1338 1402
 543 542 544
 562 560 563
 659 671 672
 1310 1205 2049
 1187 1077 1188
 519 520 521
 1035 1350 1351
 1015 1013 1419
 247 248 249
 454 448 455
 529 530 532
 221 220 222
 991 1077 1187
 1197 1485 1511
 342 345 1813
 735 919 1184
 579 580 592
 233 232 259
 479 480 481
 524 522 528
 387 386 388
 219 221 283
 579 578 580
 253 251 254
 1458 1455 1683
 529 528 530
 1161 1500 1526
 236 237 238
 1526 1500 1597
 1077 954 1318
 1252 1215 1550
 426 427 892
 238 239 243
 543 544 548
 659 658 671
 215 216 217
 217 216 218
 742 1215 1252
 576 577 578
 1206 1482 1483
 1513 990 1514
 236 235 237
 247 243 248
 1184 919 1185
 1505 1382 1521
 925 1101 1266
 1080 1082 1525
 1218 1089 1789
 574 575 576
 234 236 971
 1293 1294 1331
 1082 1491 1492
 1590 1322 1591
 444 443 445
 1169 1078 1433
 523 522 524
 649 658 659
 1206 1310 1482
 1150 1148 1388
 1203 1011 1204
 1207 1012 1556
 1206 1205 1310
 576 578 579
 1122 1402 1423
 1407 1406 2250
 409 425 428
 455 448 905
 1271 1179 1449
 561 560 562
 479 478 480
 569 568 570
 1448 1095 1489
 1381 1382 1505
 522 520 1770
 238 243 247
 567 566 568
 647 648 649
 185 191 823
 1317 1424 1425
 1010 1011 1203
 573 572 574
 1132 972 1379
 649 648 658
 1132 1379 1380
 234 235 236
 573 1264 1265
 449 450 451
 1131 972 1132
 567 568 569
 217 218 219
 234 233 235
 1449 1179 1450
 521 522 523
 570 571 572
 1196 1089 1218
 219 218 220
 570 572 573
 382 385 1288
 450 440 727
 1003 1002 1004
 1010 1001 1011
 868 1451 1452
 916 972 1131
 292 300 301
 300 291 308
 1042 1043 1323
 1042 1323 1522
 521 520 522
 1337 1841 1842
 370 371 384
 851 852 870
 449 440 450
 1308 1241 1337
 1155 1145 1413
 1285 1109 1303
 1201 927 1293
 925 1266 2003
 851 870 1997
 1172 1012 1207
 1381 1380 1382
 818 1012 1172
 1132 1380 1381
 219 220 221
 385 386 387
 1457 1455 1458
 1456 1457 1459
 231 233 234
 426 411 427
 1155 1413 1414
 1024 1025 1165
 573 574 1264
 1337 1241 1841
 1136 1406 1407
 885 298 1241
 231 232 233
 1406 1408 1608
 1002 1001 1010
 1000 1002 1003
 292 291 300
 231 229 232
 1456 1455 1457
 1136 1137 1406
 1406 1137 1408
 403 411 426
 1000 1001 1002
 1001 999 1688
 246 291 292
 1190 1455 1456
 1000 999 1001
 1304 997 2031
 246 281 291
 1342 1502 1503
 1190 1454 1455
 1371 245 1372
 998 999 1000
 999 997 1304
 246 244 281
 1342 1316 1502
 1297 1342 1430
 1190 1128 1454
 996 998 1153
 998 997 999
 242 245 1371
 1210 1356 1497
 245 244 246
 1316 1296 1504
 1297 1316 1342
 1189 1128 1190
 996 997 998
 242 244 245
 1210 1036 1356
 1297 1296 1316
 1029 1128 1189
 996 995 997
 1034 1036 1210
 242 153 244
 1036 939 1037
 153 1270 1603
 1029 1127 1128
 1295 1296 1297
 994 995 996
 378 1034 1226
 1034 939 1036
 151 153 242
 153 152 1270
 1029 837 1127
 1295 1028 1296
 992 994 1409
 994 993 995
 1180 337 1593
 378 939 1034
 151 152 153
 152 150 1363
 1028 837 1029
 836 1028 1295
 992 993 994
 993 337 1180
 378 377 939
 151 150 152
 1767 1768 1769
 836 837 1028
 176 178 1814
 913 373 1897
 137 114 156
 155 162 2019
 992 337 993
 138 377 378
 143 150 151
 268 266 1746
 1767 1766 1768
 836 336 837
 1171 1563 1908
 1763 1762 1764
 839 1465 1947
 832 1398 1701
 571 1723 2138
 1800 771 1801
 123 337 992
 138 143 377
 143 95 150
 168 195 2008
 455 905 1981
 1765 1766 1767
 974 1383 1884
 234 971 1732
 1262 956 1745
 136 336 836
 960 857 1669
 1280 190 1716
 1235 933 1877
 1819 1820 1821
 1761 1762 1763
 1378 637 1857
 1238 1333 1750
 85 25 137
 1214 1828 1829
 2005 1267 2036
 1033 1309 2009
 243 239 1793
 1393 1118 1802
 1708 1474 2043
 1972 808 1973
 1879 803 2307
 970 516 1912
 43 95 138
 12 11 140
 21 20 139
 106 40 119
 10 11 2142
 15 16 1657
 108 18 129
 107 10 124
 1259 813 1775
 1275 1846 1847
 475 1757 1772
 807 325 2006
 1660 1391 2091
 1814 2357 2459
 536 485 1956
 654 638 1980
 1415 777 1868
 1724 571 2138
 334 808 1972
 1327 1053 1948
 1300 1038 1703
 1921 1447 2096
 1589 1494 2441
 1257 1837 1975
 26 25 85
 1750 423 2333
 1282 1874 2130
 1275 1276 1846
 1894 1929 2148
 1162 1559 2389
 123 122 337
 282 289 1808
 111 1646 1647
 138 95 143
 921 716 1992
 1240 1141 1858
 513 508 1872
 750 1447 1921
 306 303 1922
 144 1625 2024
 337 122 1593
 441 989 1788
 978 1146 1708
 897 354 1914
 1627 1264 1994
 502 500 1798
 1765 319 1766
 776 523 1839
 709 1906 1907
 350 268 1746
 244 153 1603
 997 995 2031
 999 1304 1688
 1011 1001 1688
 1455 1454 1683
 1143 926 1693
 411 412 1731
 1134 1271 1509
 2000 1407 2291
 386 383 1576
 407 408 1698
 885 1412 1786
 748 425 1698
 1048 1136 1999
 442 444 1707
 388 386 1702
 191 825 1710
 218 216 1709
 449 451 1774
 1100 427 1731
 845 850 1496
 1092 929 1725
 794 1253 1889
 224 222 1727
 959 1115 1618
 570 573 1978
 990 347 1776
 253 254 1726
 1194 1195 1761
 437 439 1753
 759 565 1741
 381 372 1786
 429 748 1752
 477 556 1757
 546 539 1799
 214 211 1756
 548 554 1758
 1004 1002 1694
 741 729 1773
 1248 1886 2056
 1192 1150 1957
 1089 923 1789
 279 280 1856
 898 899 1913
 658 648 1794
 677 675 1923
 1132 1381 1717
 863 1243 1891
 345 821 1813
 1185 1435 1771
 634 643 1853
 1167 1075 1824
 797 937 1831
 520 970 1770
 944 838 1752
 1123 921 1822
 284 271 1899
 263 261 1926
 799 796 1889
 359 349 1892
 1067 985 1871
 952 1085 1916
 882 1125 1930
 827 828 1881
 703 739 1911
 1126 767 1909
 628 652 1952
 390 421 1931
 941 987 1902
 893 830 1881
 775 505 1905
 785 783 1917
 604 669 1927
 663 688 1863
 293 299 1882
 1213 1320 1826
 495 802 1935
 503 775 1934
 687 690 1925
 1174 1175 1848
 833 725 1910
 689 686 1875
 622 640 1954
 581 557 1928
 1229 1292 1825
 454 692 1834
 848 753 1979
 351 906 2060
 620 618 1939
 173 171 1940
 608 606 1944
 1537 1052 1902
 612 610 1945
 517 501 1934
 769 1162 1909
 376 288 1856
 867 868 1904
 541 543 1987
 861 738 1886
 1223 1056 1916
 1400 932 1910
 401 398 1951
 507 526 1905
 1085 884 1892
 1314 1537 1964
 357 356 1891
 817 710 1950
 849 1610 1979
 1073 866 1710
 527 493 1935
 1014 892 1609
 1058 918 1970
 322 320 1968
 742 1252 1925
 1320 1212 1830
 597 600 1966
 808 339 1931
 1234 260 1727
 278 287 1837
 1196 1218 1823
 222 220 2030
 1082 1492 1525
 1145 1042 1522
 370 925 2003
 452 450 1995
 528 522 1770
 908 851 1997
 232 229 2007
 1406 1608 2250
 721 840 2014
 1309 1022 2020
 164 812 2015
 165 163 1621
 719 2014 2017
 928 1269 2025
 202 198 2020
 720 718 1529
 717 732 1133
 666 699 2017
 147 154 2025
 200 269 1368
 178 1441 1814
 192 176 1814
 1494 2301 2441
 1247 913 1897
 373 353 1897
 162 2015 2019
 196 155 2019
 1219 2091 2127
 1219 189 1662
 422 392 1783
 1288 385 1996
 509 498 1760
 1214 1829 1830
 98 184 1666
 791 616 1938
 1275 1847 1848
 444 446 2029
 627 771 1800
 166 168 2008
 822 458 1787
 136 132 336
 360 974 1884
 1268 188 1604
 1961 551 1962
 231 234 1732
 1287 1893 1894
 1084 881 2065
 190 159 1716
 131 128 831
 933 757 1877
 1800 1801 1805
 492 490 1785
 25 102 1646
 111 24 1646
 810 592 1967
 239 241 1793
 1263 243 1793
 1118 1050 1802
 853 976 1901
 516 514 1912
 660 467 1918
 813 212 1775
 473 475 1772
 325 327 2006
 777 891 1868
 488 486 1744
 667 1888 2057
 470 468 1845
 485 487 1956
 638 636 1980
 1081 654 1980
 331 334 1972
 1038 1100 1703
 392 391 1782
 480 478 1974
 771 629 1626
 1276 1386 1846
 911 1524 1898
 526 805 1859
 1141 835 1858
 1676 1037 2077
 1838 776 1839
 1357 1878 1879
 1539 1636 1637
 724 750 1921
 24 25 1646
 114 23 1666
 22 98 1666
 144 94 1602
 273 275 1701
 2011 811 2012
 1473 1147 1969
 1976 1225 1977
 354 374 1914
 447 459 1988
 500 509 1798
 773 502 1798
 1695 1166 1696
 1819 653 1820
 1783 1782 1784
 774 484 1817
 11 107 140
 91 15 1657
 1710 825 2033
 1761 1195 1762
 1794 648 1795
 1758 554 1759
 1923 675 1924
 1853 643 2124
 1891 1243 2088
 1952 652 1953
 1954 640 1955
 1935 802 1936
 1902 987 1903
 1928 557 1929
 1863 688 1864
 1970 918 1971
 2017 2014 2018
 512 515 1900
 1 138 378
 666 2017 2207
 1368 269 1596
 474 551 1961
 864 1254 1949
 1833 1286 2104
 436 422 1783
 862 776 1838
 498 496 1760
 1277 1274 1835
 616 614 1938
 187 194 1538
 326 379 1692
 1713 1182 1714
 1410 2144 2146
 210 352 2005
 1079 363 2021
 490 510 1785
 770 492 1785
 592 593 1967
 733 853 1901
 467 744 1918
 1822 921 1992
 1214 1827 1828
 486 774 1744
 510 488 1744
 468 660 1845
 1374 519 1990
 900 1373 1759
 1103 1743 1971
 957 1377 1864
 304 963 1865
 523 524 1839
 391 394 1782
 478 859 1974
 525 480 1974
 805 829 1859
 1260 534 1946
 1308 1337 2074
 800 982 1850
 1268 1604 1605
 448 447 1988
 459 1261 1988
 896 895 1735
 484 482 1817
 511 512 1900
 515 1374 1900
 476 474 1961
 1274 1273 1835
 1315 1277 1835
 906 1122 2084
 744 465 1896
 330 326 1692
 2259 1503 2315
 307 897 1919
 208 210 2005
 352 1267 2005
 971 236 1959
 1821 2068 2075
 363 201 2021
 1351 1541 1874
 1071 393 1963
 798 800 1850
 519 521 1990
 294 304 1865
 963 965 1866
 589 591 1942
 534 537 1946
 1337 1843 2074
 23 22 1666
 595 594 1832
 1817 525 1818
 895 1060 1735
 124 160 1616
 1122 1423 2084
 465 462 1896
 587 589 1943
 305 307 1919
 982 1242 1850
 1039 1174 1827
 393 389 1963
 591 605 1942
 235 233 1713
 233 259 1713
 1617 1282 2130
 1595 894 2353
 964 362 1920
 1024 1166 1695
 1019 1024 1695
 1017 1019 1695
 1111 936 1849
 259 1182 1713
 1418 1111 1849
 1403 1237 2061
 1649 27 2047
 1069 1039 1827
 389 335 1963
 1009 1694 2050
 936 798 1850
 730 587 1943
 362 305 1919
 588 653 1819
 462 822 1896
 530 528 1989
 598 595 1832
 1253 792 1832
 1060 1559 1735
 1237 1235 2061
 661 1800 1805
 1859 829 2026
 537 540 1946
 965 1291 1866
 285 294 1865
 1214 1069 1827
 521 545 1990
 236 238 1959
 1046 1047 1796
 1558 1255 1796
 392 1782 1783
 811 208 2005
 201 197 2021
 590 588 1819
 333 330 1692
 696 530 1989
 1736 1737 1739
 1417 1418 2264
 859 476 1961
 804 511 1900
 1235 1877 2061
 482 525 1817
 792 598 1832
 825 1335 2033
 554 559 1759
 1923 1924 2098
 675 672 1924
 688 706 1864
 557 552 1929
 648 645 1795
 918 763 1971
 84 666 2207
 1648 93 2184
 905 448 1988
 1893 708 2102
 31 100 135
 540 806 1946
 1026 964 1920
 1330 1026 1920
 545 1415 1990
 238 247 1959
 1255 1046 1796
 739 733 1901
 593 596 1967
 197 1268 2021
 1906 1106 2087
 1040 862 1838
 415 414 1949
 418 864 1949
 614 642 1938
 976 940 1876
 1051 1365 1876
 1865 963 1866
 1829 1828 2214
 662 1110 1869
 601 599 1869
 1147 1149 1969
 1059 1346 1780
 967 966 1780
 2071 1295 2103
 815 724 1921
 835 768 1858
 795 1831 2028
 89 29 2027
 782 781 1898
 784 911 1898
 629 631 1626
 524 531 1839
 1718 705 1719
 1742 1741 1816
 891 1070 1868
 1158 1400 2106
 340 331 1972
 589 1942 1943
 1378 1857 2053
 636 1853 1980
 1375 1081 1980
 1860 262 1861
 487 803 1956
 327 340 2006
 707 473 1772
 212 213 1775
 249 358 1958
 514 518 1912
 823 1289 1747
 184 185 1747
 241 807 1793
 1741 563 1816
 757 431 1877
 948 1119 1991
 458 445 1787
 1307 979 2046
 159 139 1716
 625 627 1800
 230 231 1732
 362 1919 1920
 348 360 1884
 812 166 2008
 385 387 1996
 416 755 1996
 1152 1055 1984
 1221 1506 1984
 1273 1040 1838
 106 122 123
 414 418 1949
 1501 1580 2462
 1104 350 1746
 226 273 1700
 227 1700 2007
 940 1051 1876
 1339 196 2019
 353 790 1897
 1460 2222 2287
 1789 950 1790
 281 244 1603
 1205 1011 1688
 412 1049 1731
 1002 1010 1694
 408 1202 1698
 216 975 1709
 929 944 1725
 894 437 1753
 211 209 1756
 565 563 1741
 347 341 1776
 433 381 1786
 923 950 1789
 988 546 1799
 1773 729 1875
 349 1513 1892
 795 797 1831
 985 984 1871
 171 1305 1940
 1075 1341 1824
 979 799 1889
 731 687 1925
 271 1105 1899
 1856 280 2060
 261 265 1926
 640 620 1939
 801 608 1944
 947 817 1950
 610 801 1945
 924 357 1891
 1244 893 1881
 569 570 1978
 738 856 1886
 421 1361 1931
 600 1863 1966
 1322 1073 1710
 1150 1388 1957
 1451 848 1979
 543 550 1987
 1376 376 1856
 398 1702 1951
 287 297 1837
 1216 1048 1999
 460 452 1995
 368 370 2003
 1387 908 1997
 1102 232 2007
 183 165 1621
 2025 1269 2066
 855 720 1529
 198 1219 2020
 1884 1383 1885
 599 662 1869
 1809 553 1810
 1720 223 1721
 149 147 2025
 915 978 1708
 443 441 1788
 1149 1217 1969
 2176 1706 2302
 303 302 1922
 1644 13 1645
 1855 1234 2123
 1804 661 1805
 829 886 2026
 1098 1555 2026
 962 513 1872
 28 27 1649
 716 715 1992
 966 1059 1780
 899 815 1921
 935 1575 1791
 768 824 1858
 19 108 1654
 781 784 1898
 1849 936 1850
 631 641 1626
 114 1666 2034
 1053 910 1948
 912 1065 1948
 549 655 1815
 1113 1583 1941
 139 1654 1716
 1857 778 2053
 89 2071 2103
 1070 1421 1868
 400 415 2037
 213 250 1775
 679 603 2038
 1179 1033 2009
 2017 2018 2207
 1783 1784 2035
 637 639 1857
 646 778 1857
 518 1589 1912
 1581 1441 2299
 247 249 1958
 428 907 1778
 185 823 1747
 951 1152 1745
 956 883 1745
 431 430 1877
 904 1017 1697
 922 1598 2233
 693 455 1981
 1224 1225 1976
 740 948 1991
 526 1859 1905
 445 443 1787
 1748 1238 1750
 1736 649 1737
 1819 1821 2038
 1228 230 1732
 661 625 1800
 346 348 1884
 531 529 1960
 532 1260 1960
 819 839 1947
 1410 1280 2080
 1719 731 2099
 115 1660 2091
 267 282 1807
 920 1171 1908
 1045 909 1908
 387 416 1996
 1055 1221 1984
 240 237 2041
 156 114 2034
 1236 1238 1748
 1700 273 1701
 358 252 1862
 528 1770 1989
 2060 906 2084
 1518 1104 1746
 227 226 1700
 1219 1662 2091
 780 1121 2053
 247 1958 1959
 989 438 2035
 1205 1688 2049
 1010 1227 1694
 1566 947 1950
 856 961 1886
 1776 341 1968
 297 380 1837
 1078 460 1995
 1044 368 2003
 968 1932 2097
 2065 1209 2167
 1732 971 2051
 206 811 2011
 199 203 2011
 110 1649 1650
 1872 506 2055
 563 560 1816
 1222 1551 1806
 1545 1520 2269
 130 128 131
 914 915 1708
 583 585 1811
 402 405 1779
 1973 808 2064
 1620 103 1622
 302 1883 1922
 1784 1782 2037
 504 773 2055
 678 1208 1705
 1977 1225 2067
 747 1155 2240
 840 723 2240
 1807 282 1808
 194 309 1538
 793 795 2028
 1085 1592 2171
 139 20 1654
 1713 1714 2041
 29 30 2027
 1810 583 1811
 886 1098 2026
 290 272 2042
 993 1180 1671
 888 1035 1873
 1251 1057 2040
 1397 962 1872
 673 674 1740
 1216 2001 2002
 715 740 1992
 621 623 1803
 1028 1029 1672
 1504 1296 1672
 1256 1428 2059
 991 1355 1797
 1062 953 1797
 106 119 122
 1120 826 2054
 602 900 1759
 754 957 1864
 671 1108 1924
 644 969 1795
 761 1103 1971
 257 262 1860
 1533 935 1791
 30 29 1643
 664 601 1870
 1949 1254 2059
 89 2027 2071
 135 132 136
 240 2041 2079
 100 132 135
 1865 1866 2042
 590 1819 2038
 34 35 87
 461 1705 2134
 910 912 1948
 613 701 1852
 1812 1461 2276
 125 128 130
 555 549 1815
 811 2005 2036
 1349 1582 2373
 1072 1113 1941
 1666 184 2034
 559 602 1759
 706 754 1864
 552 988 1929
 763 761 1971
 672 671 1924
 645 644 1795
 1153 1680 2076
 1782 394 2037
 766 764 1915
 235 1713 2041
 679 2038 2075
 1195 1970 2093
 1076 1443 1878
 1357 1068 1878
 1299 1230 2051
 1403 2061 2062
 415 1949 2059
 394 400 2037
 1518 1746 2058
 1152 1984 1985
 547 553 1809
 386 1576 1702
 1727 222 2030
 603 590 2038
 740 1991 1992
 1458 1685 1722
 1450 1179 2009
 562 564 1755
 1433 1078 2063
 1873 1351 1874
 183 1623 2100
 808 1931 2064
 1272 161 2024
 148 145 2024
 1840 1041 1841
 639 646 1857
 1623 113 2128
 87 35 133
 1066 1357 1890
 1180 1599 1635
 1606 1178 1667
 1429 1339 1634
 17 18 1651
 409 428 1778
 676 681 1880
 574 576 1994
 883 951 1745
 1393 1818 2282
 26 85 2047
 221 223 1720
 1282 1873 1874
 1094 1093 1986
 1461 1812 2386
 1995 727 2063
 854 734 2068
 110 28 1649
 1491 1083 2167
 1805 1801 2475
 734 700 2075
 751 693 1981
 1432 1224 1976
 1721 973 1825
 298 296 1840
 1241 1840 1841
 436 1783 2035
 379 324 2079
 1078 1995 2063
 1190 1456 1682
 1151 1193 1982
 683 704 2090
 20 19 1654
 529 532 1960
 144 1602 1625
 860 1844 2342
 907 819 1947
 1827 1174 2048
 1756 1597 2406
 1543 641 2418
 15 115 1652
 760 762 1887
 1388 1986 2095
 1928 1894 2102
 265 267 1807
 1900 1374 2054
 594 1729 1730
 285 1865 2042
 909 920 1908
 446 454 2029
 258 256 2058
 456 461 1711
 843 457 1711
 1280 1716 2080
 1746 266 2058
 329 328 1885
 237 235 2041
 1577 1236 1748
 252 255 1862
 1246 1394 2057
 316 342 1932
 36 35 1619
 1578 1440 2465
 32 31 1648
 586 584 2101
 804 1900 2054
 1875 1870 2073
 778 780 2053
 1787 443 1788
 438 436 2035
 315 313 2069
 203 206 2011
 1762 1195 2093
 1952 1953 2461
 726 901 1888
 667 694 1888
 560 555 1816
 1353 1352 2262
 1370 880 2150
 1087 2461 2482
 35 36 133
 847 1138 2052
 1493 1222 1806
 1828 1827 2048
 575 572 1724
 1390 942 1724
 1738 673 1740
 995 1671 2031
 1823 344 2238
 1845 660 2280
 405 409 1779
 555 1815 1816
 1387 1997 1998
 2038 1821 2075
 193 199 2023
 506 504 2055
 461 678 1705
 1174 1848 2048
 723 747 2240
 1718 1719 2099
 1110 793 2028
 272 285 2042
 1035 1351 1873
 931 1157 1836
 902 834 1836
 1305 169 2100
 167 183 2100
 995 993 1671
 1057 1159 2040
 27 26 2047
 1392 1393 2282
 336 1607 2256
 1228 1732 2051
 409 1778 1779
 1390 1724 2138
 1257 1975 2112
 265 1807 1926
 1397 1872 2055
 2007 1700 2085
 1991 1822 1992
 1790 1433 2403
 40 105 2045
 772 621 1803
 1296 1028 1672
 1254 1256 2059
 953 991 1797
 2041 1714 2079
 1952 1468 2312
 2059 1428 2141
 826 804 2054
 1373 1758 1759
 1743 1970 1971
 1377 1863 1864
 1716 1654 2080
 255 257 1860
 702 609 2094
 746 722 1993
 1119 1479 2122
 836 1295 2071
 1558 1796 2129
 184 1747 2034
 1013 406 1867
 980 949 2016
 992 1409 1668
 1322 1710 2033
 924 1891 2088
 115 14 1660
 13 97 1660
 1826 2356 2400
 566 758 1723
 571 568 1723
 134 133 1653
 255 1860 1862
 1622 103 1624
 1287 1894 2148
 1197 1512 1937
 1286 1090 1937
 1975 1288 2112
 611 613 1852
 1894 1928 1929
 451 453 2202
 1178 1007 1670
 1932 1813 2097
 1542 1693 2125
 1303 1109 2052
 1927 669 2090
 899 1921 2096
 1835 1273 2083
 142 146 2132
 1297 1430 2103
 1289 1311 2120
 346 1884 1885
 382 1288 1975
 2078 569 2182
 824 766 1915
 802 497 2117
 499 517 2117
 1298 1855 2123
 1941 1404 2223
 2020 1219 2127
 1362 1581 2299
 2187 1319 2283
 1777 1776 1968
 1566 1950 2098
 291 281 1687
 820 2221 2267
 1068 1076 1878
 1230 1228 2051
 650 667 2057
 1933 1777 1968
 927 745 1718
 986 1286 1833
 728 816 1833
 1242 1849 1850
 1736 1739 2147
 1102 2007 2085
 93 30 1643
 1720 1721 1825
 806 547 1809
 1431 1258 2112
 1907 1906 2087
 1457 1458 1722
 1859 2026 2082
 161 148 2024
 914 1708 2043
 1662 115 2091
 1707 2029 2104
 1065 1066 1890
 1676 2077 2284
 129 157 2144
 1806 1263 2387
 1020 1018 1851
 1726 1518 2058
 2029 1834 2104
 454 1834 2029
 691 676 1880
 1187 1475 2118
 1694 1227 2050
 1842 1841 2121
 2432 1576 2506
 250 1615 2200
 1877 430 2061
 713 708 1893
 1287 919 1893
 1264 574 1994
 1400 1910 2087
 2031 1370 2150
 2027 136 2071
 1099 1586 2211
 1765 1767 2166
 1818 1464 2217
 283 221 1720
 1093 1448 1986
 1309 2020 2127
 1931 1361 2064
 494 770 2133
 1549 1615 2381
 987 854 2068
 1083 1466 2167
 697 682 1734
 700 679 2075
 1108 1587 2105
 295 277 1854
 1241 298 1840
 1023 1191 2010
 205 204 2010
 577 943 1728
 1967 596 2151
 647 649 1736
 1986 1448 2095
 668 651 2102
 601 1869 1870
 1791 1792 2162
 1267 1590 2463
 324 240 2079
 1189 1190 1682
 1253 1730 2046
 1217 1151 1982
 2012 811 2036
 669 683 2090
 37 96 1653
 1739 1917 2147
 2057 1394 2116
 887 1087 2013
 880 879 2013
 1298 1016 1855
 584 582 2116
 1625 1272 2024
 1233 760 1887
 2026 1555 2082
 1264 1627 2108
 1493 1806 2387
 2100 1623 2128
 112 17 1651
 266 258 2058
 1225 1530 2067
 852 846 1712
 818 1172 1733
 457 456 1711
 1838 1839 2083
 1667 1127 2256
 1501 1405 2280
 594 580 1729
 317 315 1933
 1919 897 2081
 1837 380 1975
 328 346 1885
 397 399 2136
 1331 2295 2498
 1688 1304 2049
 1886 961 2056
 775 1905 2082
 2221 1402 2267
 1515 1777 2070
 2192 1414 2429
 979 1889 2046
 1325 1534 2139
 12 13 1644
 1773 1875 2073
 342 1813 1932
 737 1106 1906
 709 714 1906
 1920 1919 2081
 653 586 2101
 1508 1942 2220
 1129 960 1669
 1605 1638 1639
 1853 1375 1980
 1841 1041 2121
 313 820 2069
 1808 914 2043
 748 1698 2086
 318 319 1765
 1760 496 2133
 16 15 1652
 694 726 1888
 1299 2051 2111
 1594 1125 2347
 113 1648 2128
 83 16 1652
 1273 1838 2083
 1663 1344 2171
 611 1852 2094
 1376 1856 2060
 426 1014 1699
 384 403 1699
 157 186 2146
 942 575 1724
 1698 1202 2086
 149 2025 2066
 1431 2112 2173
 812 2008 2440
 1700 1701 2085
 2264 1418 2317
 1654 108 2080
 1613 981 2134
 1453 1249 2157
 1869 1110 2073
 624 1954 2196
 652 626 2196
 113 32 1648
 873 874 2022
 1330 1920 2081
 2009 1309 2203
 1839 531 2083
 1031 193 2023
 1227 1481 2050
 1815 1742 1816
 1107 1250 2153
 1835 2083 2140
 1905 1859 2082
 248 1263 2179
 254 251 2179
 367 365 1691
 1591 1322 2033
 1105 1926 2044
 1903 987 2158
 1870 1869 2073
 1643 110 2263
 2055 773 2114
 1965 1353 2344
 752 736 1895
 834 931 1836
 1120 2054 2115
 169 167 2100
 320 1933 1968
 1887 1126 2137
 121 88 1659
 939 377 1665
 1674 1153 2076
 481 483 2174
 1321 1590 2191
 998 1000 1680
 96 38 1655
 39 106 1655
 1372 1678 2072
 1959 1958 2111
 803 1879 2390
 609 611 2094
 755 756 2201
 1671 1370 2031
 27 28 2172
 722 855 1993
 1017 1695 1697
 1445 2251 2313
 1924 1108 2098
 1529 2193 2504
 1601 786 2485
 1144 1552 2169
 1465 930 2169
 1420 1013 1867
 1101 1317 2004
 783 779 2147
 136 836 2071
 26 27 2197
 1385 980 2016
 1183 1523 2183
 596 1966 2151
 1889 1253 2046
 2051 971 2111
 479 481 2190
 1294 1718 2099
 123 992 1668
 1808 2043 2044
 568 566 1723
 1425 2432 2506
 1820 653 2187
 1102 2085 2154
 2098 1108 2105
 41 40 2045
 1091 92 1642
 1090 1197 1937
 1825 1292 2107
 1418 1849 2113
 869 121 2209
 1211 1629 1631
 453 841 2202
 23 111 2198
 90 22 2198
 1065 1890 2109
 1695 1696 1697
 300 308 1706
 1207 1556 2089
 1295 1297 2103
 1394 1319 2187
 650 2057 2116
 1208 1557 1705
 1615 1329 2200
 1328 1612 2200
 1109 1712 2052
 1307 2177 2213
 1268 1605 2298
 1410 2080 2144
 1807 1808 2044
 2054 1374 2115
 1306 1773 2143
 1990 1415 2115
 14 13 1660
 380 382 1975
 158 140 2032
 2128 1648 2184
 1574 1291 2427
 1063 1176 2204
 972 656 1754
 1701 1398 2085
 117 118 2489
 1364 958 2242
 1412 1308 2206
 497 499 2117
 1233 2137 2138
 1533 1791 2162
 1821 1820 2158
 727 440 2166
 415 2059 2141
 1603 1422 2471
 308 291 1687
 1871 984 2165
 1191 1641 2185
 1711 461 2134
 1294 927 1718
 1400 2087 2153
 1520 1397 2114
 2009 2203 2236
 816 986 1833
 1397 2055 2114
 981 1711 2134
 1769 1768 2420
 1374 1990 2115
 1234 1727 2123
 1727 2030 2123
 1991 1119 2122
 1375 1853 2124
 938 410 1689
 1258 1257 2112
 2046 1730 2177
 180 1632 2299
 156 2034 2120
 994 996 1673
 1596 2342 2447
 1191 1509 1641
 332 333 2208
 1416 1294 2099
 1263 1806 2179
 971 1959 2111
 1130 1499 2092
 2083 531 2140
 39 38 141
 9 10 1642
 1926 1807 2044
 2275 1543 2384
 1343 1020 1851
 1925 1252 2156
 1720 1825 2107
 1938 642 2145
 1355 1187 2118
 1935 1936 2194
 1242 1432 2113
 1316 1504 2215
 1669 1547 2278
 1034 1210 1579
 1611 1045 2234
 2084 1423 2110
 1517 1518 2155
 919 713 1893
 1667 1178 1670
 1327 1948 2109
 1284 1364 2152
 1181 1102 2154
 1477 1797 2126
 2132 1334 2170
 1433 2063 2403
 1243 1099 2211
 1773 2073 2143
 2034 1747 2120
 607 702 2220
 701 615 2214
 2137 1390 2138
 1488 1133 2490
 2262 1352 2300
 1963 335 2208
 1704 2192 2429
 496 494 2133
 1360 1822 2122
 652 2196 2336
 1747 1289 2120
 396 397 2062
 775 2082 2160
 2076 1471 2328
 682 711 1734
 2061 430 2062
 1215 743 2233
 1970 1743 2093
 2115 1415 2181
 1290 1027 2223
 903 295 1854
 204 1023 2010
 578 577 1728
 1976 770 2450
 657 647 1736
 1286 1937 2159
 1820 2187 2283
 1529 749 2193
 2123 2030 2186
 1851 1298 2186
 708 668 2102
 1522 1323 2212
 7 109 1656
 2068 1821 2158
 1064 1581 2232
 1557 1556 2368
 876 878 1635
 1008 1006 2218
 1598 1501 2462
 1469 464 1569
 1942 605 2220
 569 1978 2182
 104 19 2243
 879 887 2013
 344 323 2238
 286 2010 2185
 1016 903 1855
 582 650 2116
 118 1469 2489
 2033 1335 2168
 1376 2060 2084
 1121 782 2130
 1813 821 2248
 1404 1941 2343
 108 129 2144
 1985 1973 2285
 1079 2021 2298
 1341 1871 2219
 712 1707 2159
 2091 1391 2127
 2022 1209 2065
 1109 852 1712
 711 818 1733
 2193 1505 2504
 1899 2119 2216
 903 1854 1855
 2080 108 2144
 580 578 1729
 320 317 1933
 1315 1835 2140
 711 1733 1734
 1063 1601 2485
 36 37 1653
 1929 988 2148
 837 336 2256
 578 1728 1729
 399 420 2136
 2082 1555 2160
 531 1960 2140
 286 1597 2438
 1777 2069 2070
 1863 1377 1966
 152 1363 2260
 1868 1421 2181
 820 311 2221
 1799 1987 2230
 1470 1614 2452
 2037 415 2141
 1326 1325 2139
 1910 1907 2087
 1790 1769 2420
 955 1376 2110
 1899 1105 2119
 714 737 1906
 2087 1106 2153
 1304 2031 2150
 1764 1762 2261
 2043 1474 2119
 41 42 88
 2106 1400 2153
 1281 955 2110
 2111 1958 2188
 1530 983 2257
 542 538 2266
 1831 1439 2225
 1392 2282 2383
 1072 1941 2223
 2119 1474 2216
 1809 1810 2276
 1379 1755 2078
 146 1334 2132
 1498 1188 2268
 1077 1318 2268
 1849 1242 2113
 1636 1476 2255
 1983 790 2320
 343 318 1765
 1120 2115 2181
 101 12 1644
 1817 1818 2217
 1377 1284 2151
 1631 1629 2332
 1421 1490 2247
 333 1692 2395
 2295 2086 2498
 1726 254 2155
 338 127 2241
 1454 1128 2271
 1610 1300 2388
 172 174 2277
 2141 1428 2195
 245 246 1678
 1675 1676 2422
 1822 1991 2122
 896 1735 2257
 2085 1398 2154
 1948 1065 2109
 2030 276 2186
 2101 1394 2187
 2184 93 2279
 283 1720 2107
 1784 2037 2141
 1934 775 2160
 1332 1403 2178
 2163 1909 2253
 186 1031 2146
 403 426 1699
 2099 731 2156
 1996 755 2173
 2182 1978 2231
 2103 1430 2172
 430 396 2062
 1226 1579 1631
 107 124 1616
 1249 1369 2157
 984 1917 2165
 1797 1355 2126
 626 624 2196
 1566 2098 2105
 874 1209 2022
 1074 1177 2430
 1466 1375 2124
 1867 432 2210
 1815 655 2161
 1632 1633 2492
 945 1544 2274
 950 1913 2497
 657 1736 2147
 2317 2113 2364
 1216 1999 2001
 1031 2131 2235
 1311 1632 2492
 1743 1742 2161
 1982 2320 2487
 1299 2111 2188
 251 248 2179
 1418 2113 2317
 788 1734 2293
 1871 2165 2219
 1916 1085 2171
 731 1925 2156
 2269 1520 2480
 1135 1613 2334
 630 1952 2312
 643 632 2312
 1106 1107 2153
 1904 868 2304
 2112 1288 2173
 1152 1985 2285
 1335 1410 2235
 1749 419 2442
 1829 2214 2455
 1890 1357 2363
 1818 525 2282
 1707 2104 2159
 1843 860 2362
 2081 897 2239
 1567 434 2297
 435 894 2297
 2227 1488 2490
 1331 1462 2295
 890 752 1895
 1966 1377 2151
 1376 2084 2110
 1189 1682 2258
 192 1814 2459
 1446 1717 2193
 1310 2049 2189
 2095 2008 2375
 1792 1318 2410
 1641 1025 2329
 483 536 2174
 1415 1868 2181
 1697 1696 2121
 1475 1539 2444
 1908 1563 2234
 469 471 2303
 2049 1304 2150
 1582 1321 2191
 1380 1379 2078
 1398 1399 2154
 803 489 2307
 491 527 2307
 1658 112 2300
 1153 998 1680
 43 116 1659
 989 2035 2195
 1616 1030 2237
 1626 1540 2310
 2104 1286 2159
 1233 1887 2137
 133 36 1653
 1917 1739 2165
 1036 1037 1675
 1422 1312 2471
 1632 1362 2299
 1987 550 2288
 987 2068 2158
 1127 1667 2271
 1401 2213 2311
 1979 1610 2388
 2004 1317 2135
 756 945 2201
 1608 99 2250
 1032 1198 2314
 1324 1390 2163
 2044 2043 2119
 1866 1291 2244
 2461 1953 2482
 1309 2127 2203
 1305 2128 2184
 170 172 2306
 1354 1332 2178
 107 1616 2032
 1539 1637 2303
 1324 2163 2253
 1612 1259 2394
 930 1144 2169
 1340 1287 2148
 1266 1101 2004
 1396 1545 2286
 433 1786 2431
 1753 712 2226
 134 2228 2241
 2248 1676 2284
 779 657 2147
 1080 1525 2346
 2073 1110 2143
 343 1765 2166
 1025 1021 2329
 1161 1526 2329
 1518 1726 2155
 1486 1183 2183
 1298 2123 2186
 2171 1344 2323
 38 39 1655
 1358 1299 2188
 1802 1050 2292
 2021 1268 2298
 841 842 2398
 1784 2141 2195
 1420 1867 2210
 1471 1470 2452
 556 479 2190
 140 107 2032
 1578 1015 2349
 28 89 2172
 640 1939 2272
 1166 1596 2447
 2344 1353 2424
 1964 1965 2344
 739 1901 2215
 1360 1962 2335
 1779 1778 2254
 858 1063 2485
 1634 1095 2358
 544 542 2327
 1485 1823 2238
 1359 1360 2335
 1725 1550 2419
 1532 1964 2344
 2148 988 2230
 102 26 2197
 1306 2143 2225
 1401 1307 2213
 1095 977 2358
 1352 1156 2339
 1958 358 2188
 2198 111 2305
 1591 2033 2168
 946 1135 2368
 1556 1012 2368
 1416 2099 2156
 2081 2239 2380
 865 1404 2343
 1598 1487 2233
 1442 1913 2416
 1845 1528 2407
 2049 2150 2189
 424 423 2347
 1682 1456 2396
 1430 1342 2259
 2032 1616 2237
 1940 1305 2184
 1049 1216 2192
 1462 1416 2180
 1031 2023 2131
 2072 968 2097
 2107 1292 2252
 2093 1743 2161
 2135 433 2431
 1861 290 2397
 310 300 1706
 1818 1393 2436
 1693 1014 2125
 2063 727 2229
 1581 1097 2357
 42 41 1661
 1692 379 2249
 1858 824 2269
 1329 1328 2200
 727 2166 2229
 1646 102 2315
 1380 2078 2182
 533 696 2369
 143 151 1664
 1637 1261 2392
 2018 2014 2443
 1778 907 2318
 1354 2178 2254
 845 1496 2398
 814 1096 2373
 527 1935 2194
 93 1643 2279
 1599 876 1635
 1569 1411 2374
 1752 748 2295
 1830 772 2309
 2129 1796 2331
 22 23 2198
 1184 1771 2464
 1336 1434 2273
 696 1989 2457
 1054 1326 2470
 1176 1510 2204
 1379 972 1754
 1262 1745 2285
 1492 1998 2434
 958 1904 2242
 1459 1457 2355
 1025 1641 2494
 1014 1609 2125
 1460 1315 2222
 1390 2137 2163
 1978 1265 2231
 281 1603 2471
 150 95 1661
 270 860 2342
 771 1626 2310
 1812 730 2501
 1507 1278 2386
 1279 1461 2386
 1112 1464 2377
 1155 2002 2240
 1288 1996 2173
 1403 2136 2178
 1504 1672 2258
 2023 2012 2131
 440 343 2166
 696 1763 2369
 219 283 2381
 1989 1770 2301
 1260 1946 2287
 1592 1663 2171
 1618 1115 2374
 976 1876 2199
 290 2042 2244
 1261 463 2392
 466 469 2392
 1442 1169 2376
 1416 2156 2180
 1788 989 2281
 1516 1368 2345
 1265 1264 2108
 1479 1392 2383
 1308 2074 2206
 366 1044 2362
 860 364 2362
 1367 1993 2351
 1580 1302 2462
 2130 1874 2275
 1164 1548 2378
 1811 1812 2276
 1802 2292 2377
 1163 670 2408
 1794 1795 2321
 1379 1754 1755
 1140 1142 2435
 2156 1252 2180
 179 177 2402
 1110 2028 2143
 1612 1330 2380
 89 2103 2172
 21 90 2415
 1512 1595 2353
 1399 1431 2274
 1382 1380 2182
 2010 1191 2185
 96 1668 2164
 789 788 2410
 1318 954 2410
 1729 1728 2177
 395 1071 2442
 790 1922 2320
 2035 1784 2195
 551 472 2407
 1125 1594 2348
 1596 269 2342
 1848 1847 2341
 1846 1386 2370
 875 1436 2393
 1947 1465 2348
 2096 1447 2417
 1787 1788 2289
 1252 1550 2180
 1137 938 1689
 1452 1704 2429
 2247 1490 2325
 642 1945 2385
 641 633 2418
 635 1378 2418
 1158 2106 2340
 1409 994 1673
 2159 1937 2226
 470 1845 2407
 1573 1566 2105
 207 286 2438
 335 332 2208
 653 2101 2187
 1126 1909 2163
 2064 1361 2245
 1677 1675 2422
 801 1722 2505
 1084 2065 2437
 550 1758 2270
 2151 1284 2152
 1482 1310 2322
 2018 2000 2291
 1448 1489 2440
 1087 1086 2461
 680 1794 2472
 1162 1139 2469
 1350 1088 2475
 732 698 2411
 1450 2009 2236
 175 1345 2372
 517 1934 2350
 1767 1769 2229
 1365 1584 2305
 1244 1881 2325
 1105 2044 2119
 2140 1960 2222
 1862 1860 2313
 2069 820 2070
 2166 1767 2229
 419 413 2442
 1945 801 2505
 1315 2140 2222
 1502 1316 2215
 880 2013 2189
 712 2159 2226
 1673 1674 2228
 1391 158 2203
 1941 1583 2343
 1742 1815 2161
 1683 1454 2412
 1226 1034 1579
 105 39 141
 92 9 1642
 1824 1341 2290
 105 141 2132
 1967 2151 2152
 1538 309 2365
 2177 1728 2213
 1145 1522 2481
 1301 1598 2462
 2150 880 2189
 1537 1902 2409
 2137 1126 2163
 1347 1600 2224
 2196 1483 2336
 774 1817 2217
 1358 2188 2251
 1261 1636 2454
 605 607 2220
 615 617 2214
 1789 1790 2420
 2097 1813 2248
 1410 2146 2235
 1341 2219 2290
 619 772 2455
 1634 1339 2379
 1469 1569 1570
 2188 358 2251
 1733 2162 2293
 1340 2148 2230
 1793 807 2387
 2194 1890 2363
 988 1799 2230
 1685 1686 2385
 1667 1670 2271
 2086 1202 2338
 2143 2028 2225
 1474 1473 2216
 1999 2000 2001
 743 922 2233
 1514 1515 2354
 1756 209 2438
 806 1809 2361
 1027 1072 2223
 786 1601 2448
 1706 308 2294
 1960 1260 2222
 2019 2015 2379
 751 1981 2474
 1402 1338 2267
 2398 1496 2496
 2342 1844 2447
 749 1446 2193
 2178 420 2254
 1763 696 2457
 1464 1818 2436
 1361 1567 2245
 310 2176 2221
 2186 276 2265
 1326 2139 2350
 1323 1585 2212
 1988 1261 2454
 1961 1962 2468
 2077 1372 2284
 1761 1763 2457
 1547 1163 2278
 1404 1064 2232
 1844 1696 2447
 2318 907 2404
 276 1709 2265
 786 787 2485
 1009 2050 2428
 1722 801 2355
 1334 149 2359
 2064 2245 2488
 99 1608 1639
 801 1944 2355
 1006 1009 2218
 1342 1503 2259
 1546 1594 2347
 1985 1984 2360
 1129 1669 2278
 1382 2182 2231
 1530 2257 2435
 1957 1388 2375
 2003 1266 2477
 8 7 1656
 2028 1831 2225
 2165 1738 2219
 2127 1391 2203
 299 1899 2216
 323 329 2238
 897 1914 2239
 423 417 2333
 791 1938 2453
 1824 2290 2371
 1651 104 2262
 1259 1775 2394
 810 1967 2152
 2000 2018 2443
 1998 1997 2434
 1939 791 2483
 2008 195 2375
 1852 701 2341
 2164 1409 2228
 1764 2261 2327
 1912 1589 2441
 1728 943 2213
 1851 2186 2265
 419 1748 2333
 2093 2161 2261
 1730 1729 2177
 2225 1439 2292
 19 20 2243
 1686 1684 2428
 2215 1901 2495
 2248 821 2422
 1488 2092 2478
 1045 1908 2234
 1511 1485 2449
 828 1120 2247
 86 8 1656
 1641 1509 2494
 2106 1472 2340
 924 2088 2358
 2161 655 2261
 1168 2204 2460
 1220 1440 2493
 1937 1512 2226
 1846 2370 2502
 2286 1545 2458
 1250 2106 2153
 111 1647 2305
 774 2217 2264
 1127 837 2256
 1940 2184 2279
 1154 1114 2308
 1879 1878 2390
 1702 1576 2432
 1553 2129 2331
 2203 158 2236
 1479 2383 2468
 1270 152 2260
 2168 1335 2235
 2136 420 2178
 311 310 2221
 2228 1674 2241
 2039 1511 2449
 2124 1467 2437
 2213 943 2311
 2139 517 2350
 1292 1519 2252
 1283 1751 2246
 1977 2067 2316
 1963 2208 2433
 1916 2171 2323
 732 1588 2490
 1372 2072 2284
 308 1687 2149
 2210 432 2324
 2246 1071 2433
 1245 1244 2400
 1239 1964 2499
 358 1862 2251
 1445 1358 2251
 744 1896 2479
 1564 1283 2246
 1772 1757 2473
 1909 1162 2253
 1250 1472 2106
 1523 2114 2484
 338 2241 2328
 1199 1262 2245
 2236 2032 2237
 1555 1554 2413
 110 1650 2263
 824 1915 2458
 983 896 2257
 538 535 2266
 1243 2211 2414
 1803 1804 2309
 1521 1382 2231
 127 134 2241
 2283 1319 2314
 283 2107 2382
 1633 156 2492
 1586 1281 2294
 1672 1189 2258
 1738 1740 2219
 1584 2198 2305
 2131 2168 2235
 299 2216 2319
 2181 1421 2247
 1453 1645 2456
 1356 1675 1677
 1188 1077 2268
 2042 1866 2244
 105 2132 2170
 1387 1998 2308
 1476 1498 2255
 420 1779 2254
 2114 773 2484
 1137 1689 1690
 2197 1430 2259
 868 1452 2304
 1378 2053 2384
 1478 1477 2451
 1874 1541 2275
 1128 1127 2271
 2274 1544 2330
 174 192 2277
 85 137 2439
 1121 2130 2275
 1640 1079 2298
 1744 774 2264
 1372 245 1678
 1502 2215 2495
 1165 1025 2494
 2230 1987 2288
 2191 814 2373
 310 1706 2176
 1913 2376 2497
 791 2453 2483
 1240 1858 2269
 1633 1336 2273
 2015 1489 2379
 1762 2093 2261
 99 2 2250
 2314 1198 2409
 2012 2036 2391
 2239 1348 2380
 1441 180 2299
 989 2195 2281
 158 2032 2236
 1395 1396 2286
 2036 1267 2463
 1114 1628 2308
 1962 551 2335
 2216 1473 2319
 1668 1409 2164
 1522 2242 2481
 2265 1709 2326
 2294 1281 2302
 2126 1355 2473
 1428 1427 2281
 1955 640 2272
 1537 2409 2499
 2245 1262 2488
 1345 1940 2279
 1266 2206 2477
 2090 704 2396
 1676 2248 2422
 1498 2268 2474
 1466 2124 2437
 1805 1245 2356
 1215 2233 2419
 1769 1790 2403
 1645 91 2456
 1344 1517 2323
 2118 1772 2473
 1431 2201 2274
 525 1974 2282
 2108 1367 2337
 2215 1504 2500
 1497 841 2398
 2254 1778 2318
 1903 2158 2283
 2328 1471 2452
 1686 2145 2385
 1030 1538 2421
 1740 691 2290
 1120 2181 2247
 828 2247 2325
 632 630 2312
 1363 2045 2170
 894 1753 2353
 2040 1395 2286
 91 1657 2367
 2377 1464 2436
 2146 1031 2235
 1579 1210 2496
 890 1895 2464
 2195 1428 2281
 976 2199 2495
 822 1787 2289
 907 1947 2404
 417 419 2333
 434 435 2297
 1244 2325 2400
 1810 1811 2276
 772 1803 2309
 1745 1152 2285
 2331 1047 2467
 2214 617 2455
 1435 1340 2288
 1548 1771 2378
 1882 299 2319
 1326 2350 2413
 1251 2040 2286
 1509 1271 2296
 1050 1306 2292
 707 1772 2444
 1310 2189 2322
 1946 806 2287
 1801 771 2310
 2124 643 2491
 2135 1425 2506
 471 707 2303
 1771 1548 2464
 1657 1658 2367
 1639 1608 1640
 1540 1350 2310
 1422 1603 2426
 2411 665 2489
 1459 2090 2396
 1499 1129 2278
 1630 2209 2486
 489 491 2307
 1795 969 2321
 2266 535 2369
 2219 1740 2290
 2220 702 2370
 1770 970 2301
 1744 2264 2317
 1116 1130 2446
 2045 105 2170
 1796 1047 2331
 1320 1830 2309
 1561 1824 2371
 1734 1733 2293
 2321 969 2346
 1356 1036 1675
 432 1951 2324
 2243 20 2415
 1463 1354 2318
 1651 2262 2300
 42 43 1659
 1753 2226 2353
 1684 2218 2428
 1345 2263 2372
 1440 1610 2465
 2211 2016 2414
 1964 1537 2499
 1647 1646 2315
 1343 2265 2326
 1319 1032 2314
 2006 340 2360
 2208 1564 2433
 2292 1439 2377
 1306 2225 2292
 1550 1215 2419
 195 170 2306
 1408 1137 1690
 2231 1265 2337
 156 1633 2439
 1552 2331 2467
 1696 1166 2447
 1226 1631 2332
 1860 1861 2313
 2199 1876 2476
 1638 99 1639
 1343 1851 2265
 510 1744 2317
 1454 2271 2412
 1483 1482 2336
 2113 1432 2364
 969 1080 2346
 1223 1916 2323
 1021 1161 2329
 2190 1478 2451
 1409 1673 2228
 1881 828 2325
 1506 2006 2360
 2158 1820 2283
 842 845 2398
 1385 2016 2211
 1758 1373 2270
 112 1651 2300
 2290 691 2371
 102 2197 2259
 2257 1389 2435
 1772 2118 2444
 1419 1609 2493
 1922 1883 2320
 1473 1969 2319
 1015 1419 2349
 1709 975 2326
 2014 840 2443
 748 2086 2295
 1461 1460 2361
 149 2066 2359
 1953 652 2336
 2250 2 2291
 2067 1486 2316
 943 1324 2311
 643 2312 2491
 1552 1553 2331
 2364 1432 2450
 1408 1690 1691
 1895 1184 2464
 1514 2354 2430
 1181 2330 2445
 655 544 2327
 1528 1359 2335
 1536 1532 2344
 1423 2176 2302
 822 2289 2401
 2110 1423 2302
 2201 945 2274
 1440 2349 2493
 977 924 2358
 1500 1343 2326
 1240 2269 2480
 1251 2286 2458
 2282 1974 2383
 1156 1158 2339
 1618 1437 2423
 1012 946 2368
 2330 1544 2445
 2323 1517 2466
 374 865 2343
 1115 1117 2374
 510 2317 2364
 1125 424 2347
 1748 1750 2333
 1574 1445 2397
 1611 1182 2445
 1781 1444 2427
 1628 1387 2308
 2134 1705 2334
 1117 1116 2446
 2305 1647 2476
 91 2367 2456
 2097 2248 2284
 961 1618 2423
 899 2096 2416
 1588 1117 2446
 1913 899 2416
 1281 2110 2302
 2209 116 2486
 2013 1087 2322
 1463 2318 2404
 2359 2066 2426
 527 2194 2363
 2056 961 2423
 2326 975 2406
 177 175 2372
 739 2215 2500
 1097 1347 2357
 2145 1686 2425
 1202 1578 2338
 2242 1904 2481
 156 2120 2492
 1882 2319 2405
 2048 1848 2341
 1340 2230 2288
 535 533 2369
 1209 1154 2366
 1346 1549 2382
 2004 2135 2431
 2241 1674 2328
 1096 1349 2373
 1354 2254 2318
 2162 1792 2293
 2189 2013 2322
 2261 655 2327
 95 42 1661
 1386 1508 2370
 377 143 1664
 2385 1945 2505
 1357 1879 2363
 1450 2236 2237
 1785 510 2364
 2270 1373 2378
 1559 1401 2389
 1847 1846 2502
 1883 1882 2405
 1804 1805 2356
 1984 1506 2360
 1670 1008 2412
 2183 1523 2484
 2391 2036 2463
 2233 1487 2419
 1903 2283 2314
 1368 1596 2345
 309 1516 2365
 2301 970 2441
 2016 1429 2414
 2114 1523 2480
 2273 85 2439
 1601 1561 2448
 2226 1512 2353
 1636 2255 2454
 1181 2154 2330
 2180 1550 2352
 1444 1574 2427
 269 270 2342
 1467 2124 2491
 2053 1121 2384
 1278 1279 2386
 1439 1112 2377
 1433 1790 2497
 1500 2326 2406
 1130 2227 2446
 2107 2252 2382
 821 1774 2422
 217 219 2381
 377 1664 1665
 2324 1951 2432
 116 1 2332
 1561 2371 2448
 1974 859 2383
 1432 1976 2450
 1223 2323 2466
 1071 1963 2433
 1563 1562 2395
 2200 1612 2394
 463 466 2392
 1263 1793 2387
 1169 1433 2376
 2370 702 2502
 1610 1201 2465
 1520 2114 2480
 364 366 2362
 1457 1722 2355
 1490 1826 2400
 1373 1164 2378
 2070 820 2267
 670 916 2408
 2260 1334 2359
 1456 1459 2396
 1482 2322 2482
 975 1756 2406
 1878 1443 2390
 1434 179 2402
 2319 1969 2405
 1594 1463 2404
 1399 2274 2330
 1449 1450 2421
 954 789 2410
 2267 1338 2354
 2094 1847 2502
 2268 1575 2474
 2262 104 2424
 472 470 2407
 2066 1422 2426
 1775 250 2394
 1591 2168 2391
 1447 1533 2417
 1508 2220 2370
 2088 1243 2414
 1902 1903 2409
 1339 2019 2379
 137 156 2439
 1674 2076 2328
 1218 1789 2420
 1451 1979 2388
 870 875 2393
 1677 1774 2202
 2357 1347 2459
 1487 1725 2419
 1896 822 2401
 1462 2180 2352
 1467 1084 2437
 20 21 2415
 1521 2231 2337
 691 1880 2371
 1576 433 2506
 1330 2081 2380
 1446 1488 2478
 1504 2258 2500
 1429 2088 2414
 1597 1500 2406
 1497 2398 2496
 1934 2160 2350
 1388 2095 2375
 1880 786 2448
 1300 1703 2388
 1338 1074 2430
 1969 1217 2405
 2383 859 2468
 633 635 2418
 2154 1399 2330
 1785 2364 2450
 1365 2305 2476
 1903 2314 2409
 1613 2134 2334
 1265 2108 2337
 1515 2070 2354
 209 207 2438
 1121 2275 2384
 1437 1568 2423
 1915 1251 2458
 2063 2229 2403
 1389 1140 2435
 1658 2340 2367
 1883 2405 2487
 870 2393 2434
 1426 1558 2479
 1393 1802 2436
 413 395 2442
 1544 1611 2445
 2387 807 2503
 2367 1472 2456
 970 1912 2441
 2086 2338 2498
 1182 1181 2445
 1658 2339 2340
 1951 1702 2432
 2145 642 2385
 2072 2097 2284
 1491 2167 2366
 2325 1490 2400
 1692 2249 2395
 1270 2359 2426
 2001 2000 2443
 1993 855 2351
 1472 1453 2456
 88 42 1659
 2095 1448 2440
 1786 1412 2431
 1587 680 2472
 2118 1475 2444
 1495 1761 2457
 617 619 2455
 1997 870 2434
 1590 1591 2463
 1614 338 2452
 1603 1270 2426
 116 2332 2486
 1139 1389 2469
 2351 855 2504
 1551 1223 2466
 1131 1717 2478
 1302 1301 2462
 770 1785 2450
 1047 1930 2467
 698 665 2411
 1524 1054 2470
 1088 1245 2475
 1798 2183 2484
 1086 1468 2461
 1575 751 2474
 787 858 2485
 1523 1240 2480
 1293 1331 2498
 905 1988 2454
 2169 1552 2467
 1687 281 2471
 1629 1630 2486
 1481 1480 2483
 2371 1880 2448
 1536 2344 2424
 1324 2253 2311
 2405 1217 2487
 2120 1311 2492
 1210 1497 2496
 1401 2311 2389
 665 117 2489
 1468 1467 2491
 1198 1239 2499
 1506 1493 2503
 1413 1145 2481
 1609 1220 2493
 433 2135 2506
 1790 950 2497
 859 1961 2468
 2336 1482 2482
 2155 1551 2466
 1876 1365 2476
 1485 2238 2449
 2339 1158 2340
 1901 976 2495
 773 1798 2484
 1582 2191 2373
 2070 2267 2354
 702 2094 2502
 1722 1685 2505
 1911 739 2500
 1133 732 2490
 2332 1629 2486
 730 1943 2501
 1477 2126 2451
 2050 1481 2425
 2126 556 2451
 1973 2064 2488
 2074 1044 2477
 1510 2175 2460
 1044 2003 2477
 2409 1198 2499
 1953 2336 2482
 855 1529 2504
 2271 1670 2412
 1262 2285 2488
 2167 1209 2366
 329 2039 2449
 1460 2287 2361
 2131 2012 2391
 2160 1555 2413
 250 2200 2394
 2206 2074 2477
 1568 2056 2423
 2096 2089 2416
 1938 2145 2453
 1217 1982 2487
 2453 1481 2483
 2237 1030 2421
 2258 1911 2500
 2252 1346 2382
 2311 2253 2389
 2263 1650 2372
 2354 1338 2430
 2089 1442 2416
 1802 2377 2436
 2350 2160 2413
 2340 1472 2367
 1355 2118 2473
 1517 2155 2466
 1445 2313 2397
 2253 1162 2389
 2249 1563 2395
 2287 806 2361
 2255 905 2454
 2229 1769 2403
 2312 1468 2491
 1703 1451 2388
 1270 2260 2359
 2168 2131 2391
 1930 2169 2467
 2204 1510 2460
 1705 1557 2334
 2238 329 2449
 556 2190 2451
 1591 2391 2463
 2304 1452 2429
 338 2328 2452
 2322 1087 2482
 1588 2227 2490
 2218 1009 2428
 2313 1861 2397
 1564 2246 2433
 1353 2262 2424
 1347 2224 2459
 1633 2273 2439
 1685 2385 2505
 2285 1973 2488
 2349 1419 2493
 1450 2237 2421
 2320 1883 2487
 2227 1588 2446
 1509 2296 2494
 2338 1293 2498
 2401 1426 2479
 1774 1677 2422
 2145 2425 2453
 1717 1446 2478
 1493 2387 2503
 2425 1481 2453
 1896 2401 2479
 2376 1433 2497
 4 4098 4861
 4770 3 4878
 4098 4441 4861
 3622 4248 4878
 2524 3954 4043
 3875 3683 4004
 4048 3815 4155
 3341 3314 4184
 2674 2668 3991
 3079 4064 4065
 3603 3604 3922
 4056 3631 4612
 3925 3202 4414
 4527 3701 4625
 4062 4093 4538
 72 2510 3945
 3908 2524 4043
 3016 2854 4165
 4625 4144 4675
 2927 2925 3978
 2531 46 2542
 3881 3711 4611
 3939 3358 4157
 4284 3206 4285
 3922 3604 3976
 4016 3456 4018
 2535 4028 4496
 3358 3939 4080
 3844 4074 4706
 3565 3900 3901
 3817 4340 4667
 3882 2874 4785
 3607 3616 3932
 47 48 3908
 4074 4075 4706
 2954 3926 3928
 2736 3980 4521
 2580 4212 4213
 4212 2580 4214
 2570 2572 4214
 71 72 3945
 4093 2671 4538
 3912 3510 3913
 3975 2864 4188
 3726 4528 4621
 3943 2674 3991
 3183 3856 4640
 3755 4267 4795
 4140 3929 4568
 4059 4068 4091
 4514 3817 4667
 4360 3864 4406
 2545 2509 3840
 2686 2688 3995
 3456 4016 4490
 4267 3755 4629
 3915 2516 3916
 3683 3417 4004
 4044 3265 4274
 3832 4625 4675
 3683 3875 4640
 3140 3891 4810
 2864 3975 4385
 3678 4084 4085
 3711 3881 4658
 2531 2542 2543
 2711 2725 4157
 3856 3183 4776
 2874 3882 4567
 3826 3906 4934
 3872 4024 4894
 2507 3886 4826
 3832 4527 4625
 3930 3736 4003
 3891 3140 4612
 3251 3967 3972
 3886 2507 4556
 2854 2851 4165
 4489 4646 4696
 3631 4450 4612
 2628 3840 4428
 3957 2527 3968
 2542 2509 2545
 4022 4021 4025
 80 2519 2546
 4312 4140 4568
 3995 2691 3996
 3904 2539 3907
 3954 2524 4039
 4211 4330 4874
 3913 3510 3914
 4184 3314 4185
 3983 58 4926
 3079 4065 4727
 3843 4146 4641
 3202 3925 4551
 3942 62 4699
 3918 3325 3920
 4146 3843 4855
 2539 3904 3992
 62 3942 4802
 3273 4002 4912
 3530 4023 4025
 2963 4607 4664
 4330 4211 4779
 3955 3954 4039
 2954 3928 4697
 3996 2691 4804
 3967 3251 4761
 4607 3874 4664
 2949 2927 3978
 3900 3565 3987
 3998 3925 4414
 2511 4291 4878
 4362 2736 4521
 3888 3887 4576
 3678 4085 4087
 4048 4155 4427
 2586 2576 4616
 3864 4360 4860
 2668 2670 3991
 3888 4576 4621
 3561 3341 4184
 4206 4365 4585
 59 58 3983
 2890 2891 4001
 3815 4048 4797
 3184 3965 3966
 3823 3629 4617
 3932 3616 4654
 4517 3910 4559
 2688 2691 3995
 4178 4177 4596
 3940 3826 4934
 3910 3909 4559
 3885 4556 4557
 4285 3206 4639
 4024 3872 4700
 48 2524 3908
 46 45 2542
 2539 47 3908
 3887 3261 4576
 3914 4037 4650
 2628 2545 3840
 4034 4531 4574
 2572 2575 4214
 2535 4496 4736
 3530 4025 4317
 4291 2511 4769
 2992 2890 4001
 4596 4177 4744
 3937 3838 4255
 2858 2861 4385
 4025 3772 4317
 3899 3146 4661
 3084 4618 4682
 4023 4022 4025
 4028 4029 4496
 3968 2527 4588
 3978 2925 4697
 2546 2519 2547
 4064 3079 4609
 3587 3586 3996
 4528 3888 4621
 4024 3403 4894
 3955 4039 4857
 4039 2515 4857
 3261 3887 4885
 4704 3589 4785
 2580 2570 4214
 4044 4274 4842
 3960 3762 4367
 4068 3078 4091
 3146 3899 4858
 3937 3160 4855
 4088 4086 4089
 3711 3624 4075
 3273 3956 4002
 4023 3530 4024
 4618 3944 4682
 3206 4284 4442
 3906 3826 4862
 3938 2731 4156
 4777 3085 4798
 3885 3886 4556
 2516 3915 4027
 4366 3725 4709
 4446 3619 4719
 2565 2566 4215
 4620 4020 4732
 2874 4143 4785
 3140 4056 4612
 3490 3931 4455
 3358 2711 4157
 2840 2838 4166
 3852 3273 4912
 4037 3914 4396
 4646 4235 4696
 3905 3575 4195
 3793 4477 4551
 3565 3901 4703
 45 2509 2542
 4763 4122 4794
 4143 4704 4785
 4405 3726 4621
 4531 3713 4574
 3656 4349 4698
 58 2541 4926
 2544 4442 4841
 2725 2731 4157
 3736 3989 4003
 4373 4705 4713
 3027 4217 4218
 3623 3035 4430
 3701 3935 4625
 3211 2686 3995
 3755 4376 4629
 3417 3560 4004
 3163 4065 4066
 4349 3656 4872
 3726 4405 4573
 4060 4763 4794
 3630 3628 4437
 4436 3630 4437
 3016 4165 4884
 4016 4017 4490
 3720 4034 4574
 4112 3453 4435
 4124 3823 4617
 3085 4482 4798
 3630 4436 4525
 3195 4360 4406
 3825 4366 4709
 4442 2544 4733
 3885 4557 4814
 3403 4225 4894
 4059 4091 4868
 3184 3966 4712
 4436 4073 4525
 4225 3403 4815
 4557 2520 4814
 3325 3918 4446
 2576 4215 4616
 3269 3922 3976
 3916 2516 4605
 2731 3938 4157
 2881 4144 4625
 3910 4774 4777
 3909 2963 4559
 4634 4139 4654
 4774 3085 4777
 4825 3911 4856
 3937 4255 4726
 4629 4376 4798
 81 80 2546
 3711 4075 4734
 3945 2510 4700
 3834 3899 4661
 4679 3097 4692
 3636 3601 3956
 3510 3912 4649
 3975 4188 4189
 3907 2539 3908
 2963 3909 4607
 3861 3986 4768
 3980 2736 4725
 3820 3965 4562
 4026 3889 4857
 4673 3036 4677
 3575 3710 4195
 3999 3638 4690
 4490 4017 4696
 3603 3922 4778
 4084 3678 4649
 3814 3587 3996
 2924 2926 4090
 3979 2721 4600
 3150 4764 4833
 4000 3039 4728
 2757 4071 4374
 45 44 2509
 2532 4825 4856
 4488 3937 4855
 4665 3319 4753
 4731 3399 4752
 3861 4768 4908
 3080 3806 4602
 3199 2858 4385
 3834 4661 4795
 4400 3694 4401
 2861 2864 4385
 4705 4207 4713
 3039 4000 4839
 3623 4430 4898
 3867 4623 4715
 4086 4088 4090
 75 4644 4653
 3707 3793 4551
 4034 3720 4732
 3211 3946 3993
 4294 4737 4756
 3997 3536 4787
 4611 3711 4734
 3607 3932 4771
 2566 2580 4215
 4405 3719 4573
 3616 4634 4654
 4619 3260 4684
 2881 3935 4566
 3736 3930 4893
 3835 4873 4874
 3946 3211 3995
 3586 3946 3996
 2583 3934 4676
 2526 4770 4891
 4300 4745 4751
 4782 2995 4817
 2508 3941 4699
 2527 3957 3969
 2838 2846 4166
 3631 3897 4450
 4365 4206 4592
 4089 3748 4632
 3182 2840 4166
 4873 4211 4874
 3746 4620 4732
 4764 4178 4833
 4770 4537 4891
 3160 3937 4726
 3312 3448 4185
 2525 3902 4563
 3893 4782 4817
 4156 2731 4371
 2576 2565 4215
 4367 3762 4735
 3536 4703 4787
 4511 4087 4807
 4340 3817 4638
 4562 3965 4800
 3852 3988 4818
 46 2539 3992
 3979 4600 4847
 2926 2930 4090
 3969 2538 4836
 3879 4665 4753
 4087 4511 4809
 4112 4435 4840
 4164 3182 4166
 3748 4089 4854
 4310 3501 4512
 4682 3944 4750
 4719 4328 4821
 3848 3638 3999
 3935 2881 4625
 4153 3136 4673
 3084 4073 4618
 4360 3081 4860
 2538 3969 4837
 3817 3816 4638
 3681 3680 3958
 3988 3852 4912
 3956 3601 4002
 3949 4702 4739
 4151 3561 4183
 3926 2954 4735
 4605 3598 4772
 3941 2508 4623
 3944 3991 4750
 2554 4443 4491
 3934 2583 4900
 3931 3490 4917
 77 2530 3985
 4389 3715 4710
 2671 3948 4538
 4073 3084 4525
 3875 3183 4640
 3771 4446 4719
 45 46 3992
 3840 2509 3958
 2520 48 3981
 2757 3058 4071
 3882 3940 4567
 3198 4108 4109
 3715 4389 4846
 48 47 3981
 3959 3743 4683
 3961 3759 4256
 3990 4679 4692
 2531 2543 2544
 2543 2542 2545
 3877 4731 4752
 3929 4140 4743
 3904 3598 4605
 4177 3081 4744
 4349 4348 4698
 4042 3692 4883
 3950 3805 4631
 4638 3816 4746
 3938 3939 4157
 4154 4673 4677
 4212 4214 4864
 4687 3289 4773
 4070 4413 4586
 3334 2586 4616
 4450 3897 4724
 3920 3325 4903
 3448 3824 4185
 79 78 3984
 3235 3305 4316
 4382 3754 4383
 3837 3999 4690
 2580 4213 4215
 4512 3501 4936
 4391 4766 4820
 4482 2812 4678
 2515 4026 4857
 3031 3998 4414
 4042 4883 4926
 4477 3202 4551
 3636 3956 4527
 3846 4212 4864
 3027 4218 4834
 3713 4531 4560
 3934 3846 4676
 2541 4042 4926
 3974 3199 4385
 4737 2643 4756
 3692 4042 4762
 4071 3791 4374
 2553 2555 4425
 3900 3987 4421
 3902 2525 4930
 3948 2671 4702
 4688 3772 4780
 3331 3637 4224
 3714 3332 4595
 2547 2519 2548
 4644 3841 4653
 71 3945 4662
 4089 4086 4854
 4206 4585 4899
 3720 3746 4732
 4745 4133 4751
 3891 3951 4810
 4316 3305 4317
 4623 2508 4715
 4004 3560 4562
 3768 4329 4901
 2676 4822 4832
 3771 4719 4821
 4088 2924 4090
 3971 2507 4826
 4025 4021 4780
 3081 4177 4860
 3199 3974 4384
 4267 3834 4795
 4428 3840 4865
 3842 4619 4684
 3633 4633 4681
 3265 4044 4845
 3845 4281 4723
 2529 3964 4526
 2513 3623 4038
 3314 3312 4185
 3629 3952 4617
 4369 3459 4533
 3080 4602 4842
 3101 3072 4427
 3975 3974 4385
 4529 3903 4543
 3967 2886 4934
 4183 3561 4184
 52 2507 3970
 3750 3772 4688
 3628 3952 4437
 4037 2536 4650
 3951 2635 4810
 4698 4348 4871
 3085 2812 4482
 2981 3320 4082
 4031 3895 4784
 3889 4026 4736
 3305 3530 4317
 3639 3113 4277
 4017 4489 4696
 4702 2674 4739
 2554 2551 4443
 3952 3628 4617
 4822 3898 4832
 3994 3588 4338
 4401 3694 4663
 4281 3845 4902
 4323 3801 4455
 3806 3610 4549
 3791 4046 4561
 4065 3163 4727
 4330 3229 4874
 4738 2518 4783
 4189 3421 4851
 3488 3863 4672
 2801 2793 4097
 3970 2507 3971
 3164 3625 4116
 3236 3235 4316
 4093 4062 4869
 4158 2723 4412
 2977 4457 4458
 2935 2910 4186
 3072 3092 4427
 4413 3691 4586
 3018 4076 4298
 3723 4364 4871
 4061 3602 4062
 3634 4615 4627
 2563 2553 4425
 2674 3943 4739
 4028 2522 4029
 4567 3940 4801
 4364 3723 4771
 4082 3320 4500
 52 2535 4026
 3287 3331 4224
 3964 2529 4802
 4587 2653 4647
 3895 4031 4850
 3203 3900 4421
 3992 3904 4605
 3791 3367 4046
 3561 4151 4589
 4329 3768 4748
 3737 4179 4452
 4116 3625 4117
 2897 3795 4107
 3805 3950 4889
 4768 3147 4812
 2698 2683 4416
 3669 2801 4097
 3881 3700 4658
 3276 3801 4323
 2555 3798 4425
 4066 3641 4805
 3806 4549 4602
 3163 4066 4805
 2520 3981 3982
 4298 4076 4484
 3421 4189 4870
 3641 4066 4552
 3906 3967 4934
 4217 3027 4579
 3724 4323 4455
 3822 4063 4399
 2664 3153 4099
 2562 2567 4420
 4233 3689 4539
 3816 4180 4746
 3608 3898 4196
 4766 3858 4820
 2983 2977 4458
 3435 3271 4278
 2556 2554 4491
 3789 3279 4320
 3610 4479 4549
 2511 81 2546
 54 2522 4028
 2967 2981 4082
 3201 4218 4536
 2543 2545 2589
 3414 3602 4061
 4224 3637 4486
 2938 3959 4683
 3985 2530 4491
 2782 2780 4242
 3391 3691 4411
 3503 4174 4470
 2673 4381 4386
 4269 2955 4487
 3185 4238 4347
 2862 3396 4120
 2556 4491 4594
 52 51 2507
 4195 3710 4495
 3068 3164 4116
 3746 4311 4925
 3918 3619 4446
 4443 3985 4491
 4359 2931 4643
 3182 4164 4918
 2547 2548 2549
 3032 4335 4480
 3060 3018 4298
 2940 2943 4377
 3368 2984 4373
 3318 3334 4047
 56 2534 4020
 3737 3301 4179
 3433 3379 4100
 3836 4482 4678
 3989 3460 4003
 4540 2941 4572
 2919 3960 4367
 2697 3203 4421
 3194 3243 4231
 3212 3665 4322
 3772 4025 4780
 2899 2897 4107
 3754 4382 4920
 3202 2962 4414
 4403 4402 4430
 3601 3554 4002
 4063 3602 4399
 3503 3043 4174
 2666 2664 4099
 2991 3321 4170
 3712 3713 4560
 2559 2562 4420
 3339 3608 4196
 4165 2851 4695
 3485 4659 4823
 2771 3453 4112
 58 2514 4033
 3271 3116 4278
 2567 4410 4420
 3262 4159 4262
 4070 4158 4413
 4154 4153 4673
 3279 3026 4320
 3440 3645 4295
 3718 3478 4296
 3562 3764 4167
 3077 3419 4251
 3225 3502 4276
 2785 2782 4242
 4820 3858 4916
 4541 3819 4642
 2716 2698 4416
 78 77 3985
 2660 2673 4386
 2734 4258 4466
 3128 3185 4347
 4242 2780 4476
 3127 3123 4145
 4043 3714 4595
 3928 3978 4697
 3020 3081 4360
 3127 4145 4459
 2865 2862 4120
 3136 4153 4910
 3563 3562 4167
 2793 2789 4097
 2734 2748 4258
 2511 2546 3776
 2589 2545 2628
 4293 3422 4388
 2939 2940 4377
 3704 3982 4841
 3215 3422 4293
 4107 3795 4478
 3379 3380 4100
 3984 78 3985
 60 2538 4032
 4155 3101 4427
 2549 2548 2551
 2547 2549 2550
 2958 3194 4231
 3848 3999 4000
 3165 4219 4333
 3433 4100 4454
 2910 2912 4186
 3169 3212 4322
 3453 2773 4237
 2932 4243 4387
 4620 3746 4925
 3796 2896 4357
 3156 3517 4363
 3759 3961 4765
 3570 3938 4156
 61 60 2508
 3750 4037 4396
 2883 2991 4170
 3198 4109 4720
 3292 3807 4244
 2511 3776 4769
 3090 3262 4262
 2589 2628 2677
 4084 3518 4085
 3478 3480 4296
 3013 3077 4251
 2549 2551 2552
 3848 4000 4001
 3477 3440 4295
 3905 4195 4935
 3228 3225 4276
 47 2531 3981
 4023 4024 4700
 2790 3663 4368
 3045 3676 4236
 2677 2628 2678
 2589 2677 3206
 3541 3427 4301
 4085 3518 4086
 2552 2551 2553
 2800 3642 4356
 2677 2678 2679
 3710 3470 4229
 2552 2553 2563
 2553 2551 2554
 2679 2678 2680
 2552 2563 2568
 2553 2554 2555
 2679 2680 2682
 2680 2678 2681
 2552 2568 4438
 2568 2563 2579
 2555 2554 2556
 2682 2680 2683
 2679 2682 2684
 2681 2678 4428
 2568 2579 2644
 2555 2556 2557
 2682 2683 2697
 2555 2557 3798
 2568 2644 4423
 2644 2579 2685
 2557 2556 2558
 2697 2683 2698
 2644 2685 2686
 2557 2558 2559
 2685 2579 3717
 2697 2698 2714
 2686 2685 2687
 2644 2686 3211
 2559 2558 2560
 2714 2698 2715
 2697 2714 3203
 2686 2687 2688
 2559 2560 2561
 2560 2558 3841
 2715 2698 2716
 3203 2714 3204
 2688 2687 2689
 2559 2561 2562
 2561 2560 3850
 2715 2716 2717
 3203 3204 3205
 3466 3318 3467
 3515 3610 3805
 3466 3467 3519
 2688 2689 2690
 2689 2687 2737
 2562 2561 2564
 3515 3323 3610
 3354 3531 3532
 3805 3610 3806
 3363 3522 3782
 3164 3568 3625
 3363 3490 3522
 2648 2647 2649
 3731 3476 3751
 2567 2576 2578
 3310 3309 3629
 3512 3347 4054
 3354 3353 3531
 3519 3467 3520
 2654 2652 2655
 2658 2656 2659
 3532 3531 3565
 2648 2649 2650
 2567 2565 2576
 2717 2716 2761
 2630 2627 2631
 3205 3204 3708
 2715 2717 2722
 3564 3520 3619
 3466 3519 3747
 3604 3420 3724
 3164 3397 3568
 2630 2631 2632
 2562 2564 2565
 2658 2659 2660
 2690 2689 2692
 2521 55 4005
 2689 2737 3947
 2654 2655 2656
 3782 3522 3804
 3203 3205 3900
 3564 3619 3918
 2623 2622 2624
 3731 3751 3752
 2787 3556 3670
 3345 3347 3512
 2907 2905 3513
 3599 3390 4067
 3708 3204 3797
 2806 2805 2807
 3730 3476 3731
 3585 3587 3716
 3148 2900 3627
 3664 3302 3777
 2769 2767 2770
 3354 3532 3535
 2799 2793 2801
 3604 3724 3757
 3738 3729 3739
 2804 2803 2805
 2623 2624 2625
 3629 3309 3952
 3610 3323 4479
 3752 3751 3948
 3728 3729 3738
 3564 3918 3919
 3380 3409 3410
 2688 2690 2691
 2802 2803 2804
 2660 2659 2673
 3603 3420 3604
 2799 2801 2802
 3670 3556 3842
 2804 2805 2806
 2602 2601 2603
 2802 2801 2803
 3664 3777 3802
 2798 2793 2799
 3757 3724 3931
 3745 3600 3828
 2690 2692 2693
 3919 3918 3920
 2615 2616 2617
 2588 2590 2591
 3317 3318 3466
 3608 3338 3609
 3802 3777 3849
 2567 2578 4410
 2722 2717 2723
 2613 2612 2614
 2602 2603 2604
 3519 3520 3564
 3481 3704 3733
 2578 2576 2586
 3615 3498 3912
 2562 2565 2567
 56 55 2521
 3454 3455 4259
 2650 2649 2651
 3148 3627 3628
 2617 2616 2618
 3197 3302 3664
 2629 2627 2630
 3276 3515 3801
 2565 2564 2566
 2787 3514 3556
 3640 3773 3774
 3298 3554 3601
 3410 3409 3539
 3380 3378 3409
 2900 2901 4123
 3828 3600 4058
 2632 2631 2633
 2600 2599 2601
 2761 2716 3387
 2610 2612 2613
 2613 2614 2615
 3463 3462 3464
 2621 2620 2622
 3483 3612 3671
 2598 2599 2600
 2808 2806 2809
 3529 3714 3715
 2630 2632 2672
 2693 2695 4111
 3414 3412 3602
 3752 3948 3949
 2658 2660 2661
 2703 2711 3358
 3238 3247 3485
 2654 2656 2657
 2591 2590 2592
 2646 2642 2647
 3324 3549 3705
 2600 2601 2602
 2615 2614 2616
 3391 3390 3599
 2632 2633 2634
 2636 2635 2637
 2807 3043 3503
 3604 3757 3976
 2636 2637 2638
 2765 2763 3139
 2810 2809 2811
 2621 2622 2623
 2646 2647 2648
 2617 2618 2619
 2668 2666 2669
 2634 2635 2636
 3671 3672 3695
 3021 2755 4374
 2598 2597 2599
 2591 2592 2593
 2612 2611 2703
 2619 2618 2620
 3671 3612 3672
 2622 2620 3147
 2807 2805 3018
 2603 2605 2606
 2638 2637 2639
 3828 4058 4060
 2693 2694 2695
 3976 3757 3977
 3715 3714 3954
 2603 2601 2605
 3928 3927 3929
 2813 2811 2814
 4009 4008 4010
 2638 2639 2640
 3804 3522 3950
 2634 2633 2635
 4009 4010 4108
 2596 2597 2598
 3535 3532 3536
 3877 3557 3878
 2673 2659 3141
 3760 3468 3761
 3926 3927 3928
 3739 3729 3915
 3322 3250 3646
 2583 2584 2585
 2625 2624 2626
 3731 3752 3753
 67 2517 4006
 3647 3646 3742
 3380 3410 3411
 2613 2615 3151
 2769 2770 2771
 3774 3943 3944
 3554 3661 3662
 2591 2593 4121
 3516 3044 4119
 3760 3761 3926
 2634 2636 3149
 3615 3912 3913
 2668 2669 2670
 2895 2897 2898
 2957 2956 2966
 2898 2899 2900
 3651 3652 3800
 3539 3821 3822
 3695 3672 3829
 2951 2950 2956
 3285 3283 4205
 2693 2692 2694
 2803 2801 3669
 2619 2620 2621
 3928 3929 3978
 2812 2811 2813
 3496 3498 3615
 3640 3641 3773
 2596 2598 3357
 2722 2723 2732
 2599 2597 3159
 4007 4009 4014
 3579 3578 3620
 67 66 2517
 3263 3196 3591
 2596 2595 2597
 3316 4336 4613
 2770 2767 4055
 3651 3333 3652
 2823 2824 2825
 2651 2649 2702
 2901 2902 2903
 2650 2651 2652
 3926 3761 3927
 3558 3557 3877
 2593 2592 2594
 3529 3332 3714
 4006 2517 4007
 3807 3447 3808
 2606 2605 2607
 2585 2584 2587
 2606 2607 2608
 2901 2903 2904
 2928 2927 2929
 3207 3037 4288
 2936 2937 2939
 2928 2929 2933
 2602 2604 2727
 2578 2586 3317
 2967 2966 2981
 3445 3444 4150
 2819 2818 2820
 2732 2723 2733
 2566 2564 2569
 2593 2595 2596
 2695 2699 2700
 2895 2893 2896
 2618 2616 2676
 2825 2824 2826
 2633 2631 3140
 2606 2608 3667
 2818 2816 3152
 2639 2637 2643
 3450 3504 3562
 2640 2639 2641
 2951 2956 2957
 3716 3587 3813
 2640 2641 2642
 2936 2934 2937
 2761 3387 3388
 3555 3468 3760
 3577 3578 3579
 2828 2826 2845
 2695 2700 2707
 2817 2816 2818
 2608 2607 2609
 4010 4012 4013
 3212 3557 3558
 2593 2594 2595
 2939 2937 2940
 3483 3611 3612
 2957 2966 2967
 2877 2879 3675
 3302 3301 3736
 2829 2828 2830
 2825 2826 2827
 3486 3463 3487
 3787 3362 4175
 2831 2830 2832
 2892 2893 2894
 4148 4147 4149
 3750 3511 3772
 3863 3487 3892
 2707 2700 2708
 3307 3427 3491
 2823 2825 2874
 3715 3954 3955
 2610 2611 2612
 2904 2905 2906
 3520 3467 3768
 3554 3280 3661
 3539 3690 3821
 3562 3504 3706
 3662 3661 3809
 2661 2660 2662
 2929 2927 2949
 3803 3609 3862
 2829 2830 2831
 2798 2799 2963
 2657 2656 2658
 3030 4147 4148
 2760 2733 4158
 2707 2708 2709
 2703 2611 2704
 3162 2906 4226
 3800 3652 3889
 3635 3601 3636
 3562 3706 3764
 3829 3672 3830
 3608 3609 3803
 3579 3620 3887
 3736 3301 3737
 2922 2924 4088
 2819 2820 2821
 2807 3018 3043
 3539 3409 3690
 2814 2811 4077
 2832 2830 3160
 3446 3126 3784
 2695 2694 2699
 2906 2907 2908
 2972 2974 4257
 4007 4008 4009
 2970 2969 2971
 2619 2621 2705
 2813 2814 2815
 2541 4041 4042
 3525 3362 3787
 2815 2814 2816
 2595 2594 2696
 2585 2587 2588
 2904 2903 2905
 4010 4008 4011
 3915 3729 4098
 2673 3141 3142
 2728 2604 3364
 2974 2973 2975
 2895 2896 2897
 2625 2626 2627
 2831 2832 2833
 2827 2826 2828
 3774 3773 3943
 2823 2822 2824
 3298 3280 3554
 3979 3617 3980
 3411 3410 3412
 3357 2598 4104
 2732 2733 2758
 3322 3646 3647
 3147 2620 4379
 3499 3494 4402
 2982 2977 2983
 3018 2805 4076
 2968 2967 2969
 2670 2669 2790
 2943 2942 2944
 3764 3706 3833
 2800 2994 3642
 2712 2704 3150
 2906 2905 2907
 2917 2938 3960
 3464 3624 3711
 2650 2652 2653
 2908 2909 2910
 2651 2702 3209
 2888 2950 2951
 2894 2895 4095
 2940 2941 2942
 3809 3661 4473
 2943 2944 4181
 2566 2569 2570
 2898 2900 3148
 2541 57 4041
 2833 2832 2834
 3831 3636 3832
 2908 2907 2909
 2936 2939 3017
 2940 2937 2941
 2727 2604 2728
 2709 2718 4380
 2974 2975 2977
 3317 2586 3318
 2578 3317 3521
 3620 3578 3816
 2758 2733 2759
 2981 2966 3046
 2933 2929 2934
 2588 2587 2590
 3450 3294 3504
 2817 2818 2819
 3491 3540 3844
 2709 2710 2718
 2821 2820 2822
 2810 2811 2812
 2918 2920 4250
 2940 2942 2943
 3491 3427 3540
 3388 3387 3389
 4007 4014 4434
 2972 2973 2974
 2910 2909 2911
 2709 2708 2710
 2982 2983 2984
 3447 3446 3726
 3464 3462 3624
 2815 2816 2817
 2972 2971 2973
 2711 2704 2712
 2944 2942 2945
 3030 2916 4147
 2707 2709 3369
 4010 4011 4012
 2974 2977 2982
 2759 2733 2760
 3652 3333 4389
 2892 2894 3084
 2585 2588 3028
 3269 3418 3922
 3152 2816 4152
 2780 2777 4476
 3166 3044 3516
 2944 2945 2946
 2993 3002 3003
 3092 3051 4328
 2910 2911 2912
 2673 3142 4381
 74 73 2518
 72 71 4015
 3140 2631 4056
 3284 3112 3286
 4007 2517 4008
 3003 3002 3026
 2894 2893 2895
 2833 2834 2835
 2759 2760 2762
 3498 3497 3518
 2947 2946 2948
 3961 3337 3962
 64 63 2529
 2933 2936 4168
 3291 3469 3553
 3100 3296 3643
 3043 3018 3060
 71 70 2528
 2725 2712 2726
 2944 2946 2947
 3471 3575 3576
 2813 2815 3251
 2904 2906 3162
 2912 2911 2913
 2625 2627 2629
 2822 2820 2881
 2984 2983 3012
 2696 2594 2746
 3592 4216 4217
 3142 3141 3143
 3290 3452 3589
 2718 2720 2735
 2877 2875 2878
 2952 2948 2953
 3283 3112 3284
 2566 2570 2580
 2993 2992 3002
 3250 3220 4297
 3411 3412 3413
 2718 2710 2720
 2570 2569 2571
 3071 3115 4344
 2575 2574 2577
 2991 2992 2993
 2590 2587 3076
 2947 2948 2952
 2762 2760 2763
 2908 2910 2935
 3509 3511 3750
 3049 3048 4327
 3510 3509 4396
 2732 2758 3032
 2946 2945 2958
 2932 3106 4243
 2657 2658 4397
 3232 3191 3703
 2670 2790 2791
 3232 3703 3735
 2884 2880 2885
 3160 2830 4146
 2762 2763 2764
 2703 2704 2711
 2729 2726 2730
 3799 3909 3910
 77 76 2530
 3209 2702 3210
 2933 2934 2936
 2835 2834 2836
 2727 2728 2734
 3270 3337 3961
 53 52 3970
 3471 3470 3575
 2952 2953 2996
 3197 3664 4370
 2888 2887 2950
 3017 2939 3191
 2609 2607 3633
 2879 2878 2880
 3318 2586 3334
 3637 3484 3638
 2817 2819 2886
 2653 2652 2654
 2981 3046 3047
 3335 3571 3785
 3185 3471 4238
 2810 2812 3085
 2735 2720 2736
 3540 3427 3541
 3388 3389 3390
 3576 3575 3905
 2996 2953 2997
 2583 2582 2584
 2911 2909 2931
 2741 2730 2742
 2994 3029 4271
 2742 2730 2743
 2991 2993 3321
 3405 3404 3932
 2984 3012 3014
 2781 2782 2783
 2570 2571 2572
 2608 2609 2610
 2980 2979 2985
 2577 2574 2581
 3277 3256 4312
 3284 3286 3287
 2762 2764 3201
 3026 3002 3039
 3278 3291 3725
 2932 3105 3106
 3003 3026 3279
 2914 2916 3030
 2584 2582 3198
 2783 2782 2784
 2720 2710 2721
 3455 3093 3572
 2835 2836 2837
 2731 2729 4371
 3106 3105 3120
 3043 3060 3088
 3142 3143 3144
 3471 3576 3577
 3143 3141 3684
 2713 2724 3197
 2781 2780 2782
 2997 2953 2998
 3411 3413 3626
 2696 2746 3274
 2571 2569 3456
 2877 2878 2879
 3328 3441 4268
 3413 3412 3414
 2577 2581 2582
 2781 2783 3045
 3014 3012 3038
 3106 3120 3121
 2883 2880 2884
 2724 2719 3324
 2997 2998 2999
 3233 3232 4193
 3424 3423 3581
 2572 2571 2573
 2791 2790 2794
 2958 2945 3193
 3844 3540 3845
 2577 2582 2583
 3209 3210 3221
 3500 3394 4311
 2879 2880 2883
 2734 2728 2747
 3111 3056 3112
 3454 3093 3455
 2742 2743 2744
 3032 2758 3036
 3124 3126 3292
 2952 2996 3015
 2997 2999 3006
 3660 3659 3727
 2572 2573 2574
 3038 3012 3075
 3106 3121 3122
 2989 2988 2990
 3388 3390 3391
 44 45 2516
 2800 2889 2994
 3124 3125 3126
 2950 2887 3154
 3390 3389 3392
 2788 2786 2789
 2982 2984 3368
 3047 3046 3098
 3017 3191 3192
 2867 2865 2868
 3066 3033 3093
 2981 3047 3320
 3121 3120 3170
 3122 3123 3124
 3122 3121 3123
 2991 2890 2992
 2920 2922 3004
 3287 3286 3329
 2788 2789 2792
 3037 3033 3066
 3026 3039 3061
 3349 3351 3352
 2837 2836 2838
 3006 2999 3007
 2987 2989 3363
 3658 3659 3660
 3014 3038 3052
 3441 3478 3718
 3352 3351 3353
 3589 3452 3590
 2572 2574 2575
 3455 3572 3573
 2849 2850 4286
 2718 2735 2738
 2988 2986 3001
 3935 3702 3936
 3197 2724 3301
 2890 2884 2891
 3003 3279 3319
 3088 3060 3132
 2987 2986 2988
 3577 3576 3578
 3056 3052 3265
 3324 2719 3325
 2994 2889 3005
 3013 3011 3033
 3424 3581 3582
 2883 2884 2890
 3581 3423 3622
 3142 3144 3306
 3144 3143 3145
 3274 2746 3275
 3352 3353 3354
 2835 2837 3161
 2985 2979 3044
 2994 3005 3029
 2792 2789 2793
 3413 3414 3475
 2883 2890 2991
 3038 3075 3080
 3055 3052 3056
 47 46 2531
 3197 3301 3302
 3221 3210 3222
 3727 3659 4441
 3062 3107 3108
 3292 3126 3446
 3582 3581 3763
 2734 2747 2748
 2742 2744 2751
 3029 3005 3040
 3144 3145 3146
 3045 2783 3362
 2838 2836 2846
 3287 3329 3330
 3013 3033 3037
 3658 3454 3659
 3007 2999 3008
 3065 3104 3289
 3124 3123 3125
 2958 3193 3194
 3015 2996 3186
 3014 3052 3055
 2748 3049 3050
 3330 3329 3400
 3050 3051 3072
 2792 2793 2798
 3061 3039 3086
 2985 3044 3165
 3287 3330 3331
 3363 2989 3490
 3091 3089 3257
 2837 2838 2839
 2849 2848 2850
 3180 3181 3256
 2987 2988 2989
 3050 3072 3100
 3170 3120 3398
 52 53 2535
 3088 3132 3280
 3222 3210 3223
 56 57 2534
 3066 3093 3454
 46 47 2539
 3180 3175 3181
 3047 3098 3099
 3050 3049 3051
 3066 3454 3658
 3231 3207 3276
 3319 3279 3457
 3340 3548 3570
 3292 3446 3447
 3324 3325 3549
 2850 2853 2855
 3023 3009 3024
 3077 3231 3419
 3091 3257 3258
 3305 3401 3530
 3132 3060 3213
 3478 3479 3480
 3135 3063 3136
 3481 3350 3528
 3048 2747 3059
 3100 3072 3101
 3416 3158 3417
 2784 2786 2788
 3029 3040 3064
 3077 3037 3207
 3117 3116 3271
 2847 2848 2849
 3165 3044 3166
 3100 3101 3296
 3465 3110 3657
 3274 3275 3482
 3303 3304 3426
 3067 3082 3083
 3022 3009 3023
 3266 3244 3268
 3472 3268 3473
 3415 3458 3621
 3034 3024 3183
 3072 3051 3092
 3296 3297 3544
 3328 3440 3441
 3349 3350 3351
 3438 3439 3686
 3550 3230 3552
 3524 3362 3525
 54 53 2532
 3455 3573 3574
 3574 3573 3668
 3073 3042 3074
 3077 3207 3231
 3180 3256 3277
 3185 3470 3471
 3187 3186 3188
 3192 3191 3232
 3291 3255 3469
 3441 3477 3478
 3296 3101 3297
 3045 3362 3524
 3061 3086 3116
 3266 3268 3472
 3621 3458 3688
 3461 3463 3486
 3055 3056 3111
 3253 3086 3254
 3246 3213 3356
 3303 3216 3304
 3475 3414 3476
 3441 3440 3477
 2853 2851 2854
 3005 2889 3395
 3061 3116 3117
 3256 3181 3404
 3221 3222 3226
 3224 3223 3225
 3622 3423 4247
 2850 2848 2851
 3029 3064 3065
 3064 3040 3109
 3067 3059 3082
 3179 3218 3219
 3215 3303 3422
 3222 3223 3224
 3305 3237 3401
 4 44 4027
 3073 3074 3118
 3116 3086 3253
 3227 3228 3270
 3282 3281 3526
 3583 3584 3585
 2744 2743 2745
 3275 2746 3382
 3045 3524 3676
 3167 3169 3208
 3224 3225 3227
 3385 3386 3415
 3238 3246 3247
 3545 3297 3546
 3401 3402 3403
 3074 3042 3184
 3083 3082 3094
 3088 3280 3298
 3404 3181 3406
 3187 3189 3190
 3215 3216 3303
 3240 3431 3432
 3258 3343 3344
 3328 3327 3440
 3461 3462 3463
 3146 3145 3239
 3189 3188 3215
 3225 3223 3502
 3270 3228 3326
 3253 3254 3333
 3394 3271 3435
 3326 3327 3328
 3331 3330 3332
 3383 3384 3385
 3385 3384 3386
 3509 3507 3511
 3128 3127 3129
 3128 3137 3185
 3365 3134 3366
 3167 3166 3168
 3430 3239 3436
 3407 3267 3408
 3275 3382 3383
 3544 3297 3545
 67 68 2537
 2847 2844 2848
 3041 3025 3042
 3111 3283 3285
 3194 3242 3243
 3208 3272 3273
 3438 3263 3439
 3293 3294 3449
 3336 3468 3555
 3025 3024 3034
 3094 3082 3299
 3137 3129 3290
 3219 3218 3220
 3240 3430 3431
 3258 3257 3343
 3270 3326 3337
 3545 3546 3547
 2850 2851 2853
 3032 3036 3062
 3048 3059 3067
 3484 3332 3529
 3373 3374 3375
 3381 3379 3433
 3494 3445 3495
 3480 3566 3567
 3496 3495 3497
 3574 3668 3680
 3015 3186 3187
 3117 3271 3393
 3119 3118 3281
 3132 3213 3238
 3169 3168 3212
 3227 3225 3228
 3360 3361 3542
 3383 3382 3384
 3128 3129 3137
 3351 3350 3481
 3373 3375 3693
 3381 3433 3434
 4217 4216 4218
 3208 3169 3272
 3238 3213 3246
 3240 3239 3430
 3278 3255 3291
 3393 3271 3394
 58 57 2541
 3290 3129 3451
 3165 3166 3167
 3172 3173 3174
 3247 3246 3260
 3377 3379 3381
 69 68 2540
 2843 2842 2844
 2843 2844 2847
 3007 3009 3022
 3023 3024 3025
 3099 3098 3293
 3293 3098 3294
 3125 3127 3128
 3172 3171 3173
 3276 3323 3515
 3489 3394 3500
 81 82 4564
 2842 2840 3182
 3185 3137 3470
 3248 3220 3249
 3526 3281 3527
 3399 3295 3425
 3478 3477 3479
 3506 3507 3508
 3023 3025 3041
 3215 3188 3216
 3419 3231 3420
 3248 3249 3261
 3264 3250 3322
 3393 3394 3489
 60 61 2538
 3007 3008 3009
 3109 3252 3335
 3366 3134 3788
 3194 3193 3241
 3461 3308 3462
 3041 3042 3073
 3326 3228 3327
 3245 3267 3407
 3249 3250 3264
 3335 3252 3437
 3340 3339 3548
 3686 3439 3687
 3073 3118 3119
 3119 3281 3282
 3174 3173 3175
 3190 3189 3230
 3219 3248 3359
 3245 3244 3266
 3415 3386 3458
 3393 3489 3492
 3508 3509 3510
 2882 3171 3172
 3065 3103 3104
 3095 3094 3096
 3247 3260 3269
 3256 3404 3405
 80 81 2533
 3109 3040 3110
 3099 3293 3295
 3480 3479 3566
 3506 3236 3507
 3428 3272 3429
 3360 3282 3361
 3613 3343 3614
 3174 3175 3176
 3194 3241 3242
 3219 3220 3248
 3290 3451 3452
 3051 3049 3133
 3125 3123 3127
 3146 3239 3240
 3187 3188 3189
 3249 3220 3250
 3269 3260 3418
 3408 3267 3421
 3489 3500 3501
 3496 3497 3498
 3174 3176 3177
 3234 3236 3505
 3274 3482 3483
 3460 3308 3461
 3374 3376 3377
 3097 3130 3131
 3131 3308 3460
 3190 3550 3551
 3336 3217 3468
 3505 3236 3506
 3259 3339 3340
 3331 3332 3484
 3381 3434 3644
 2839 2840 2841
 3190 3230 3550
 3243 3244 3245
 3424 3582 3583
 2748 2747 3048
 3107 3135 3259
 3252 3110 3465
 3164 3113 3397
 3157 3158 3416
 3273 3272 3428
 3283 3284 3474
 3377 3378 3379
 3118 3074 3138
 3104 3255 3278
 3176 3175 3180
 3224 3227 3229
 3234 3235 3236
 3458 3386 3459
 3494 3495 3496
 2839 2841 2852
 3099 3295 3399
 3177 3178 3179
 3276 3207 3323
 3449 3294 3450
 3235 3233 3237
 3349 3348 3350
 3377 3376 3378
 3583 3582 3584
 2748 3048 3049
 3167 3168 3169
 3192 3233 3234
 3258 3344 3345
 3508 3507 3509
 62 63 2527
 3119 3282 3360
 3131 3307 3308
 3348 3346 3699
 2847 2849 2882
 2882 2849 3171
 3109 3110 3252
 3307 3130 3427
 3262 3263 3438
 3374 3372 3376
 77 78 2536
 3111 3112 3283
 3235 3237 3305
 3344 3343 3613
 3493 3494 3499
 3083 3094 3095
 3234 3233 3235
 3243 3242 3244
 3259 3135 3338
 3262 3196 3263
 3401 3237 3402
 3245 3266 3267
 3693 3375 3700
 3179 3217 3218
 3062 3063 3107
 3373 3372 3374
 3574 3680 3681
 2839 2838 2840
 3011 3000 3078
 3095 3096 3097
 3259 3338 3339
 3345 3344 3346
 3083 3095 3288
 3218 3217 3336
 2841 2842 2843
 3157 3156 3158
 3347 3348 3349
 3383 3385 4306
 3533 3778 3874
 58 59 2514
 2980 2985 2986
 3542 3361 3543
 3379 3378 3380
 3192 3232 3233
 3053 3089 3091
 3313 3315 3316
 3493 3445 3494
 3104 3103 3255
 3316 3315 4336
 3107 3063 3135
 3097 3096 3130
 2841 2840 2842
 3065 3064 3103
 3090 3196 3262
 3312 3310 3448
 3067 3083 4309
 3443 3445 3493
 3070 3134 3365
 3062 3036 3063
 3177 3176 3178
 3179 3178 3217
 3315 3314 3341
 3131 3130 3307
 3347 3346 3348
 3013 3037 3077
 3342 3341 3442
 3345 3346 3347
 3763 3581 4291
 3115 3309 3310
 3315 3341 3342
 3068 3113 3164
 3313 3312 3314
 3443 3444 3445
 2980 2986 2987
 3090 3195 3196
 3311 3310 3312
 3313 3314 3315
 3090 3054 3195
 65 66 2512
 3115 3310 3311
 2926 2927 2928
 3155 3156 3157
 2787 2785 3514
 3156 2871 3517
 3311 3312 3313
 2795 2794 2800
 3432 3569 3755
 3371 3372 3373
 2744 2745 3019
 3367 3423 3424
 3799 3765 3909
 2729 2730 2741
 3443 3442 3444
 69 70 2525
 2800 2794 2889
 3115 3114 3309
 3342 3442 3443
 2912 2913 2914
 3089 3054 3090
 3527 3281 4292
 2792 2798 2995
 3457 3789 3790
 2791 2794 2795
 3010 3011 3013
 2968 2970 3102
 2786 2785 2787
 3070 3071 3134
 2843 2847 4302
 3450 3562 3563
 2837 2839 4339
 3365 3366 3367
 3593 3594 3595
 2713 2719 2724
 2924 2925 2926
 2738 2735 2739
 2725 2729 2731
 2897 2896 3795
 3071 3114 3115
 3058 3069 3070
 3357 4104 4105
 2779 2780 2781
 3268 3244 4318
 3053 3054 3089
 3068 3057 3113
 3660 3727 3728
 3367 3366 3423
 2756 2754 3163
 3620 3816 3817
 2741 2742 4254
 2914 2913 2915
 2876 2873 2887
 3778 3779 3893
 2827 2829 3300
 2752 2749 3079
 3155 2871 3156
 3966 3790 4221
 3371 2706 3372
 2875 2873 2876
 3099 3399 4353
 2923 2921 2954
 3665 3558 3666
 3052 3038 4274
 2725 2726 2729
 3606 3957 3968
 3010 3000 3011
 3569 3765 3799
 2753 2755 3021
 3728 3727 3729
 2699 2701 2713
 3273 3428 3956
 2796 2797 2892
 2872 2875 2877
 3426 3304 3873
 3631 2675 3897
 3020 2745 3081
 3053 3020 3054
 2926 2925 2927
 3335 3437 3571
 2922 2923 2924
 2932 2902 3105
 3253 3333 3651
 3517 2871 4227
 2784 2782 2785
 3070 3069 3071
 3092 4328 4329
 3071 3069 3114
 3691 3600 3745
 2706 4141 4223
 2796 2795 2797
 2866 2865 2867
 3180 3277 4331
 2917 2915 2938
 2965 3010 3031
 3426 3873 3894
 2791 2795 2796
 3906 3721 3967
 2924 2923 2925
 3058 3068 3069
 3457 3279 3789
 3212 3168 3557
 2768 2767 2769
 3417 3158 3559
 2784 2785 2786
 3034 3183 3875
 3606 3605 3957
 3173 3171 3656
 3593 3567 3594
 3019 3020 3053
 3701 3702 3935
 3019 2745 3020
 2711 2712 2725
 3869 3655 3902
 3375 3374 4305
 2930 2928 4190
 2920 2921 2922
 2926 2928 2930
 2912 2914 4182
 3967 3721 3972
 3778 3534 3779
 2878 2875 4197
 3346 3344 4315
 3720 3500 3746
 3552 3653 3654
 3592 3593 4216
 2740 2750 3214
 3965 3790 3966
 3432 3431 3569
 2706 2646 4141
 2753 2752 2754
 3635 3636 3831
 2610 2609 2611
 2755 2754 2756
 3767 3974 3975
 3385 3415 3754
 2866 2867 2871
 2713 2701 2719
 3482 3275 4334
 3709 3546 3815
 3838 3596 3839
 3416 3417 3683
 3550 3552 3865
 2922 2921 2923
 3697 3595 3698
 3876 3875 4004
 3058 3057 3068
 2872 2873 2875
 3139 2763 4070
 2750 2749 2752
 3612 3864 4176
 3483 3482 3611
 2757 2756 3057
 2821 2822 2823
 2918 2919 2920
 3654 3870 4225
 3897 2675 3986
 3384 3382 3794
 3756 3538 3856
 3872 3871 3945
 3938 3548 3939
 2866 2871 3155
 3488 3487 3863
 2753 2754 2755
 3775 4348 4349
 3882 3826 3940
 2750 2752 2753
 2920 2919 2921
 3337 3326 4314
 2757 3057 3058
 3706 3504 3792
 3648 3570 3649
 2645 2706 3371
 3360 3542 3786
 3856 3538 3857
 3571 3734 3836
 3034 3875 3876
 2755 2756 2757
 2699 2694 2701
 3501 3500 3720
 2964 2961 3087
 3030 4148 4151
 2957 2967 2968
 3820 3790 3965
 3870 3869 3871
 2808 2809 2810
 3566 3479 3769
 3621 3688 3941
 2968 2969 2970
 2891 2884 4365
 3891 3769 3951
 3825 3452 4366
 3298 3601 3635
 2900 2899 2901
 3533 3534 3778
 2978 2976 2979
 3519 3564 4134
 3902 3655 3903
 3537 3538 3756
 3340 3570 3648
 3553 3721 3906
 3654 3869 3870
 3426 3894 3895
 3552 3230 3653
 3590 3452 3825
 3942 3688 3964
 3208 3852 4219
 2740 2749 2750
 3870 3871 3872
 3472 3473 3766
 2965 3000 3010
 3701 3429 3702
 3526 3527 3712
 3019 3053 4252
 3786 3542 3819
 3262 3438 4159
 3425 3295 3596
 3221 3226 3523
 2626 2675 3631
 3775 3473 4348
 3693 3700 3881
 3569 3431 3765
 2978 2979 2980
 3679 3838 3937
 3847 3638 3848
 2751 2744 4264
 3654 3655 3869
 3686 3687 3866
 3867 3687 3921
 3758 3666 3843
 3526 3712 3810
 3543 3605 3606
 3767 3766 3974
 3834 3780 3899
 2975 2973 2976
 2898 2897 2899
 3608 3803 3898
 2914 2915 2916
 3457 3790 3820
 3613 3614 3812
 3571 3437 3734
 3566 3769 3891
 2938 2915 3959
 3353 3351 4283
 2779 2777 2780
 3465 3657 3780
 2626 2624 2675
 3592 3567 3593
 3570 3548 3938
 3895 3894 3896
 3534 3436 3827
 2863 2865 2866
 3473 3268 3723
 3579 3887 3888
 3860 3861 3973
 3304 3216 3674
 3941 3688 3942
 2903 2902 2932
 3543 3361 3605
 3465 3780 3834
 3553 3469 3721
 2740 2739 2749
 3759 3525 3835
 3864 3611 4406
 3590 3826 3882
 3766 3473 3775
 3654 3653 3655
 3846 3547 4212
 2951 2957 4390
 3537 3408 3538
 3637 3638 3847
 2970 2971 2972
 2916 2915 2917
 2872 2870 2873
 2867 2868 2869
 2863 2862 2865
 3472 3766 3767
 2738 2739 2740
 3480 3567 3592
 3533 3436 3534
 3560 3559 3879
 3713 3527 3868
 2857 2854 3016
 3329 3286 4481
 3440 3327 3645
 2827 2828 2829
 3322 3647 3719
 3611 3482 3883
 3696 3595 3697
 3665 3666 3758
 3697 3698 3860
 3417 3559 3560
 2975 2976 2978
 2790 2669 3663
 2978 2980 4245
 2882 3172 3673
 2675 2624 4057
 3837 3254 3999
 2664 2662 3153
 3679 3596 3838
 3407 3408 3537
 3242 3241 3607
 2975 2978 4457
 3333 3254 3837
 3032 3062 4335
 3575 3470 3710
 3157 3416 3597
 3616 3241 4191
 3430 3436 3533
 2645 2646 2706
 3407 3537 3689
 2964 3087 4091
 3712 3527 3713
 3370 2888 4408
 3593 3595 3696
 3677 3884 3997
 3744 4153 4154
 3640 3639 3641
 3590 3825 3826
 3923 3925 3998
 3866 3867 3983
 3357 4105 4106
 2962 2961 2964
 2870 2868 3634
 3879 3559 3880
 3744 3697 4153
 3860 3698 3861
 3208 3273 3852
 3705 3549 3770
 3475 3730 3732
 3425 3679 3953
 3696 3697 3744
 80 79 2519
 2965 2964 3000
 2804 2806 2808
 3212 3558 3665
 3612 3611 3864
 2831 2833 2860
 3486 3488 3930
 50 2515 4039
 2862 2859 3396
 3425 3596 3679
 2861 2862 2863
 3618 3617 3979
 3613 3812 3911
 3506 3508 3678
 3556 3514 3707
 3866 3687 3867
 3524 3525 3759
 3813 3814 3858
 3555 3760 3762
 3475 3476 3730
 79 80 2513
 3170 3580 3783
 3780 3657 3781
 3355 2772 4094
 3545 3547 3818
 3648 3650 4468
 2667 2666 2668
 3339 3338 3608
 2856 2858 3199
 2916 2917 2918
 3962 3337 3963
 3428 3429 3701
 50 51 2515
 3607 3241 3616
 2766 2765 2767
 3622 4247 4248
 54 55 2522
 2738 2740 4391
 2869 2868 2870
 2856 2857 2858
 3292 3447 3807
 2665 2667 2671
 3650 3649 3677
 2960 2959 2961
 2876 2887 2888
 3286 3112 4222
 3486 3487 3488
 2667 2668 2674
 2861 2859 2862
 3311 3313 4469
 2766 2768 3027
 2750 2753 4372
 3148 3628 3630
 3535 3740 3741
 3650 3677 3749
 2665 2664 2666
 2918 2917 2919
 3580 3722 3851
 2775 2777 2779
 2971 2969 3632
 3535 3536 3740
 2861 2863 2864
 2778 2776 2959
 2869 2870 2872
 3730 3731 4064
 2901 2899 2902
 3818 3846 3934
 2665 2666 2667
 3648 3649 3650
 3818 3547 3846
 3617 3433 4454
 3993 3588 3994
 3707 3514 3793
 3795 2896 3796
 2856 2854 2857
 2859 2857 4125
 2764 2763 2765
 2776 2774 4122
 48 49 2524
 2661 2663 3200
 2876 2888 3370
 3647 3742 3743
 2663 2662 2664
 2858 2859 2861
 3079 2749 3855
 3547 3546 3709
 3812 3614 3890
 2663 2664 2665
 2892 2797 2893
 3531 3353 3685
 3853 3499 3854
 3434 3617 3618
 3677 3649 3811
 2661 2662 2663
 3397 3639 3640
 75 76 2523
 3770 3549 3771
 2645 2642 2646
 2858 2857 2859
 3391 3599 3600
 2853 2854 2856
 3170 3398 3580
 3434 3433 3617
 3438 3686 3692
 82 3 2526
 3331 3484 3637
 3400 3598 3904
 3580 3398 3722
 3900 3205 3901
 2640 2642 2645
 3677 3811 3884
 3923 3924 3925
 3858 3814 3859
 3497 3495 3748
 2774 2772 3355
 2771 2770 2772
 3573 3572 3933
 3922 3418 3923
 2764 2765 2766
 3033 3011 4249
 2960 2961 2962
 2768 2769 2955
 3317 3466 4053
 2766 2767 2768
 2775 2774 2776
 2778 2959 2960
 2773 2774 2775
 2962 2964 2965
 2775 2776 2777
 3493 3499 3853
 2960 2962 3202
 2777 2776 2778
 3442 3341 3561
 3813 3587 3814
 3946 3588 3993
 3923 3418 3924
 3397 3113 3639
 3885 3528 3886
 3419 3420 3603
 3400 3329 3598
 3365 3367 3791
 3391 3600 3691
 2773 2772 2774
 2771 2773 3453
 3704 3528 3885
 49 48 2520
 3586 3588 3946
 3585 3586 3587
 3481 3528 3704
 2771 2772 2773
 3680 3668 3682
 3392 3389 3694
 3694 3389 4415
 3585 3584 3586
 3586 3584 3588
 4202 4204 4207
 4200 4202 4203
 4202 4201 4204
 4319 3789 4320
 4200 4201 4202
 4139 4137 4140
 4163 4162 4165
 4200 4199 4201
 4015 4018 4019
 4131 4130 4133
 4129 4131 4132
 3657 3110 4342
 3488 4672 4781
 4138 4137 4139
 3034 3876 4265
 4162 3563 4167
 4161 4162 4163
 2818 3152 4144
 3557 3168 4393
 4036 2536 4037
 3722 4542 4656
 3554 3662 4002
 3605 3361 4266
 4198 4199 4200
 4087 4085 4626
 4016 2528 4017
 4015 4016 4018
 2513 3035 3623
 4129 4130 4131
 2870 3634 4395
 3294 3098 4341
 3661 3280 4083
 3189 3215 4293
 3673 3172 4234
 4136 4137 4138
 2609 3633 4135
 3407 3689 4233
 3397 3640 4072
 4161 3563 4162
 4160 4161 4164
 2846 2836 4255
 3448 3823 3824
 4065 3753 4066
 4109 4013 4110
 3765 3431 4350
 2903 2932 4387
 3653 4293 4388
 55 54 4005
 68 67 4006
 71 2528 4015
 44 2516 4027
 2533 81 4564
 57 56 4041
 49 50 4039
 2532 53 3970
 2513 80 2533
 82 2526 4564
 2685 3717 4422
 4017 2528 4426
 3158 3156 4363
 3015 4324 4325
 2691 4635 4804
 3335 3785 4270
 4234 3177 4321
 4359 4643 4674
 3149 2636 4114
 2512 4030 4031
 4284 3733 4442
 3830 4177 4178
 4198 3370 4199
 4358 2931 4359
 3108 3107 4289
 4015 2528 4016
 2513 2533 3035
 4424 2563 4425
 4129 4128 4130
 3989 3737 3990
 3566 3891 4343
 3119 3360 4290
 4166 2846 4758
 3576 3905 4180
 3175 3173 4239
 4145 3783 4459
 4011 4008 4040
 3410 3539 4399
 3300 4194 4195
 2891 4365 4592
 2692 3947 4398
 2569 2564 4419
 3448 3310 3629
 3466 3747 4053
 2631 2627 4056
 3347 3349 4054
 2624 2622 4057
 2767 2765 4055
 3627 2900 4123
 3093 3033 4249
 3600 3599 4058
 3731 3753 4064
 3390 3392 4067
 2811 2809 4077
 3000 2964 4091
 2805 2803 4076
 2763 2760 4070
 2598 2600 4104
 2695 2707 4111
 3564 3919 4134
 2895 2898 4095
 3729 3727 4098
 3646 3250 4297
 4010 4013 4108
 2901 2904 4123
 3455 3574 4259
 2755 2757 4374
 2593 2596 4121
 3044 2979 4119
 3659 3454 4259
 3642 2994 4271
 2646 2648 4141
 3283 3474 4205
 2916 2918 4147
 2830 2828 4146
 2733 2723 4158
 2620 2618 4379
 3323 3207 4288
 2772 2770 4094
 2816 2814 4152
 4006 4007 4434
 3495 3445 4150
 2906 2908 4226
 2857 3016 4125
 2936 3017 4168
 3672 3612 4176
 3699 3346 4315
 3362 2783 4175
 3167 3208 4219
 2928 2933 4190
 2944 2947 4181
 3232 3735 4193
 2753 3021 4372
 2914 3030 4182
 3051 3133 4328
 2920 3004 4250
 3697 3860 4153
 3241 3193 4191
 3372 2706 4223
 3790 3789 4221
 3471 3577 4238
 3220 3218 4297
 2871 2867 4227
 2774 3355 4122
 3048 3067 4327
 3037 3066 4288
 3313 3316 4469
 3256 3405 4312
 3115 3311 4344
 3029 3065 4271
 2974 2982 4257
 3237 3233 4193
 3423 3366 4247
 3552 3654 4225
 3441 3718 4268
 3106 3122 4243
 3004 2922 4088
 2850 2855 4286
 2742 2751 4254
 2875 2876 4197
 2740 3214 4391
 3581 3622 4291
 3171 2849 4286
 3083 3288 4309
 3315 3342 4336
 3394 3435 4311
 2847 2882 4302
 3133 3049 4327
 3244 3242 4318
 2718 2738 4380
 3281 3118 4292
 2839 2852 4339
 3265 3052 4274
 3047 3099 4353
 3038 3080 4274
 3161 2837 4339
 3374 3377 4305
 3134 3071 4344
 2729 2741 4371
 3385 3754 4306
 3746 3500 4311
 3452 3451 4366
 3142 3306 4381
 3176 3180 4331
 3053 3091 4252
 3286 4222 4481
 3275 3383 4334
 2658 2661 4397
 3723 3268 4318
 3868 3527 4292
 3369 2709 4380
 3351 3481 4283
 3593 3696 4216
 3326 3328 4314
 3473 3723 4348
 2884 2885 4365
 3494 3496 4402
 2980 2987 4245
 2978 4245 4457
 2977 2975 4457
 2957 2968 4390
 3509 3750 4396
 3883 3482 4334
 3333 3837 4389
 2919 2917 3960
 3344 3613 4315
 2744 3019 4264
 2915 2913 3959
 3749 3677 3997
 3438 3692 4159
 3062 3108 4335
 3547 3709 4212
 3986 2675 4057
 3112 3056 4222
 2749 2739 3855
 3214 2750 4372
 3963 3337 4314
 2959 2776 4122
 3611 3883 4406
 3980 3617 4454
 3396 2859 4125
 2713 3197 4370
 2888 2951 4408
 2578 3521 4410
 2777 2778 4476
 3747 3519 4134
 3598 3329 4481
 3521 3317 4053
 3389 3387 4415
 3011 3078 4249
 3685 3353 4283
 2692 2689 3947
 2644 3211 4423
 2568 4423 4438
 3664 3802 4475
 3025 3034 4265
 2678 2628 4428
 3422 3303 4308
 3110 3040 4342
 4363 3517 4522
 4746 4180 4824
 2549 2552 4438
 2820 2818 4144
 3168 3166 4393
 3878 3557 4393
 3736 3737 3989
 4246 2983 4458
 4136 2949 4137
 2650 2653 4433
 4179 3705 4452
 3098 3046 4341
 3504 3294 4341
 3661 4083 4473
 3280 3132 4083
 3172 3174 4234
 3460 3461 4003
 2611 2609 4135
 3640 3774 4072
 3568 3397 4072
 3662 3809 3988
 2836 2834 4255
 3431 3430 4350
 3962 3963 4435
 3059 4171 4287
 3245 3407 4233
 3851 4687 4773
 2835 3161 4375
 4050 2641 4051
 3797 4418 4480
 4411 3691 4413
 3109 3335 4270
 3300 2829 4194
 4377 2943 4463
 3779 4210 4211
 4370 3664 4475
 2636 2638 4114
 2972 4257 4394
 2639 2643 4429
 3437 3252 4267
 3210 2702 4052
 3107 3259 4289
 2874 4142 4143
 4011 4040 4445
 3626 3413 4361
 2602 2727 4432
 4160 3563 4161
 3073 3119 4290
 3360 3786 4290
 2864 4187 4188
 3173 3656 4239
 3181 3175 4239
 3539 3822 4399
 3412 3410 4399
 2634 3149 4127
 3159 2597 4209
 3006 3007 4280
 2997 3006 4272
 4074 2672 4075
 3456 2569 4419
 2564 2561 4419
 54 2532 4005
 2540 68 4006
 2524 49 4039
 56 2521 4041
 3568 4072 4073
 4058 3599 4059
 3448 3629 3823
 4064 3753 4065
 4077 2809 4078
 4205 3474 4206
 4108 4013 4109
 4168 3017 4169
 3004 4088 4089
 4268 3718 4269
 4339 2852 4340
 4212 3709 4213
 4336 3342 4337
 4252 3091 4253
 4469 3316 4520
 4476 2778 4477
 4410 3521 4555
 72 4015 4019
 3303 3426 4308
 4174 3635 4470
 4062 3602 4063
 2642 2641 4050
 2647 2642 4050
 2648 2650 4433
 3015 3187 4324
 2629 2630 4074
 2605 2601 4101
 3624 3462 4173
 2651 3209 4378
 2833 2835 4375
 2607 2605 4102
 3209 3221 4352
 2829 2831 4194
 3815 3546 4155
 3857 3538 4241
 2970 2972 4394
 2641 2639 4429
 3223 3210 4052
 3188 3186 4351
 4191 3193 4192
 65 2512 4035
 2603 2606 4103
 3839 3596 4275
 2600 2602 4432
 4231 3243 4233
 4079 3358 4080
 3229 3227 4256
 2632 2634 4127
 2597 2595 4209
 3007 3022 4280
 2996 2997 4272
 3779 3534 4210
 2656 2655 4069
 3472 3767 4299
 2630 2672 4074
 3797 3204 4418
 4119 2976 4392
 2601 2599 4101
 3009 3008 4313
 3667 2608 4126
 3221 3523 4352
 3755 3569 4376
 3794 3382 4355
 3546 3297 4155
 3538 3408 4241
 2614 2612 4079
 2874 2825 4142
 3463 3464 4092
 3596 3295 4275
 2747 2728 4171
 2604 2603 4103
 2606 3667 4103
 3239 3145 4345
 4096 3670 4581
 3534 3827 4210
 3226 3222 4330
 4258 3643 4466
 2659 2656 4069
 3204 2714 4418
 3024 3009 4313
 3145 3143 4346
 2608 2610 4126
 3569 3799 4376
 4001 2891 4793
 3382 2746 4355
 2864 2863 4187
 3886 3528 4404
 2825 2827 4142
 3487 3463 4092
 2728 3364 4171
 3059 2747 4171
 3436 3239 4345
 2863 2866 4187
 3964 3688 4369
 3384 3794 4307
 3386 3384 4307
 3459 3386 4307
 3688 3458 4369
 3352 3354 4407
 3535 3741 4407
 3766 3775 4384
 3458 3459 4369
 3354 3535 4407
 2866 3155 4187
 4200 4203 4519
 3974 3766 4384
 4208 4198 4519
 3827 3436 4345
 3528 3350 4404
 3348 3699 4404
 3892 3487 4092
 2827 3300 4142
 2746 2594 4355
 2605 4101 4102
 3209 4352 4378
 3143 3684 4346
 2610 2613 4126
 3183 3024 4313
 2714 2715 4418
 3141 2659 4069
 4199 3370 4408
 3931 3724 4455
 3222 3224 4330
 2999 2998 4260
 3295 3293 4275
 3364 2604 4103
 2612 2703 4079
 2696 4113 4209
 3350 3348 4404
 2594 2592 4355
 3408 3421 4241
 3297 3101 4155
 2613 3151 4126
 3266 3472 4299
 3421 3267 4299
 2599 3159 4101
 2715 2722 4418
 3684 3141 4069
 3224 3229 4330
 3008 2999 4260
 3124 3292 4244
 4198 4200 4519
 2809 2806 4078
 4059 3599 4067
 4520 3316 4613
 3017 3192 4169
 3342 3443 4337
 3091 3258 4253
 2778 2960 4477
 3227 3270 4256
 3186 2996 4272
 4040 65 4445
 2595 2696 4209
 2672 2632 4127
 3787 4175 4467
 3293 3449 4275
 3216 3188 4351
 2649 2647 4049
 2703 3358 4079
 3502 3223 4052
 3102 2970 4394
 2507 51 4556
 3987 2684 4421
 2582 2581 4261
 2665 2671 4093
 3200 2663 4093
 3193 2945 4192
 2831 2860 4194
 2652 2651 4378
 3633 2607 4102
 4361 3732 4362
 2860 2833 4375
 3307 3491 4173
 3462 3308 4173
 3267 3266 4299
 3944 3943 3991
 3400 3904 3907
 4197 4198 4208
 64 65 4035
 3187 3190 4324
 2635 3951 4859
 2528 70 4426
 69 2540 4426
 3549 3325 4446
 3217 3178 4332
 3336 3555 4440
 2869 2872 4228
 3615 3913 4430
 3426 3895 4308
 2676 2616 4081
 2561 3850 4419
 2638 2640 4115
 3270 3961 4256
 66 65 4040
 4262 4159 4263
 3602 3412 4399
 3946 3995 3996
 4337 3853 4537
 3406 3181 4239
 3413 3475 4361
 3041 3073 4290
 4289 3648 4468
 3674 3216 4351
 3252 3465 4267
 2702 2649 4049
 3259 3340 4289
 2574 2573 4235
 3064 3109 4270
 3198 2582 4261
 4051 2641 4429
 4130 4128 4449
 2952 3015 4325
 2663 2665 4093
 4049 2647 4050
 2705 4281 4282
 67 2537 4030
 2512 66 4030
 4114 2638 4115
 2655 2652 4378
 4345 3145 4346
 3430 3533 4350
 3990 3737 4452
 4230 2958 4231
 3308 3307 4173
 3529 3715 4846
 2621 2623 4281
 3461 3486 4003
 3637 3847 4486
 3190 3551 4324
 2704 2611 4135
 4322 3665 4474
 3174 3177 4234
 3132 3238 4083
 2519 79 3984
 3792 3504 4341
 4633 3829 4681
 3046 2966 4439
 2645 3371 4115
 3186 4272 4351
 3243 3245 4233
 3042 3025 4265
 3166 3516 4393
 2881 2820 4144
 2518 73 4019
 3040 3005 4342
 3771 3549 4446
 4294 3477 4295
 2702 4049 4052
 4283 3733 4284
 3830 4176 4177
 4123 3162 4124
 3178 4331 4332
 4190 4168 4511
 4297 3336 4440
 4302 3673 4303
 4227 2869 4228
 4197 3370 4198
 4182 4151 4183
 4402 3615 4430
 3481 3733 4283
 2765 3139 4055
 2622 3147 4057
 3349 3352 4054
 2627 2626 4056
 3572 3093 4249
 3078 3000 4091
 4070 2760 4158
 2803 3669 4076
 2898 3148 4095
 2770 4055 4094
 4098 3727 4441
 2707 3369 4111
 2596 3357 4121
 2979 2976 4119
 2904 3162 4123
 2828 2845 4146
 3830 3672 4176
 2814 4077 4152
 4147 2918 4250
 2783 2784 4175
 3165 3167 4219
 3613 3911 4315
 2908 2935 4226
 3376 3372 4223
 2618 2676 4379
 3865 3552 4225
 2987 3363 4245
 2933 4168 4190
 3366 3788 4247
 3377 3381 4305
 3218 3336 4297
 3065 3289 4271
 3402 3237 4193
 3118 3138 4292
 3067 4309 4327
 3320 3047 4353
 3178 3176 4331
 3383 4306 4334
 3328 4268 4314
 3056 3265 4222
 3656 3171 4286
 3788 3134 4344
 2982 3368 4257
 3242 3607 4318
 3019 4252 4264
 2882 3673 4302
 2867 2869 4227
 3030 4151 4182
 3066 3658 4288
 2968 3102 4390
 2876 3370 4197
 4344 3311 4469
 3574 3681 4259
 4380 2738 4391
 3659 4259 4441
 2661 3200 4397
 3496 3615 4402
 3748 3495 4150
 2699 2713 4370
 2951 4390 4408
 3323 4288 4479
 4059 4067 4068
 2615 2617 4128
 4008 2517 4040
 4061 4062 4538
 3151 4128 4129
 2852 4304 4516
 4341 3046 4439
 3578 3576 4180
 4160 4164 4524
 3567 3566 4343
 3722 3398 4542
 3657 4342 4460
 4335 3797 4480
 59 60 4032
 3811 4156 4371
 4046 4045 4561
 3475 3732 4361
 2852 2841 4304
 3781 4460 4461
 4188 4187 4448
 3465 3834 4267
 3340 3648 4289
 2581 2574 4235
 3483 3671 4113
 2696 3274 4113
 3376 4223 4431
 2591 4121 4456
 3028 2588 4456
 64 2529 4445
 3103 3064 4270
 3858 3859 4916
 3559 3158 4363
 2687 2685 4422
 4244 3807 4483
 2905 2903 4387
 2640 2645 4115
 4268 4269 4487
 4416 2683 4417
 73 72 4019
 4129 4132 4453
 3533 3874 4350
 4234 4321 4505
 3469 4465 4509
 3690 3409 4431
 3378 3376 4431
 2705 2621 4281
 4292 3138 4512
 3230 3189 4293
 3154 2887 4395
 2873 2870 4395
 3486 3930 4003
 4091 3087 4868
 3150 2704 4135
 2966 2956 4439
 3361 3282 4266
 3526 3810 4266
 3082 3059 4287
 3238 3485 4083
 4168 4169 4511
 2571 3456 4490
 3579 3888 4510
 4270 3785 4465
 3585 3716 4045
 3290 3589 4229
 3470 3137 4229
 3184 3042 4265
 4775 3857 4803
 2795 2800 4356
 3005 3395 4342
 3761 3468 4332
 2877 3675 4228
 70 69 4426
 3427 3130 4301
 3642 4271 4494
 2680 2681 4417
 3363 3782 4245
 2626 3631 4056
 3148 3630 4095
 3357 4106 4121
 3381 3644 4305
 2784 2788 4175
 2700 2699 4370
 4271 3289 4494
 2781 3045 4236
 72 73 2510
 3395 2889 4368
 2794 2790 4368
 3094 3299 4300
 4097 4096 4581
 3151 2615 4128
 3327 3228 4276
 2517 66 4040
 4302 4303 4304
 3010 3013 4251
 3479 3477 4294
 3480 3592 4296
 3816 3578 4180
 3953 3679 4488
 3781 3657 4460
 2947 2952 4325
 4128 2617 4449
 3594 3567 4343
 2942 2941 4192
 3089 3090 4262
 2619 2705 4449
 4114 4115 4451
 2998 2953 4232
 4104 2600 4432
 4170 3321 4503
 4231 4233 4539
 3373 3693 4451
 2590 3076 4472
 2879 2883 4170
 4465 3785 4509
 2807 3503 4078
 3234 3505 4169
 3493 3853 4337
 3345 3512 4253
 57 58 4033
 66 67 4030
 4141 2648 4433
 3468 3217 4332
 2872 2877 4228
 3862 4768 4812
 4138 4540 4572
 3649 3570 4156
 3322 3719 4405
 2550 2549 4438
 3450 3563 4160
 3684 4069 4515
 2896 2893 4357
 2945 2942 4192
 3122 3124 4244
 4076 3669 4484
 3274 3483 4113
 3006 4280 4497
 2588 2591 4456
 2773 2775 4237
 3272 3169 4322
 2806 2807 4078
 3192 3234 4169
 3443 3493 4337
 3258 3345 4253
 2960 3202 4477
 4252 4253 4513
 4238 3784 4347
 2694 2692 4398
 3880 3559 4363
 3022 3023 4464
 4115 3371 4451
 2737 2687 4422
 3525 3787 4354
 3451 3129 4459
 2885 2880 4208
 3157 3597 4448
 2946 2958 4230
 3614 3343 4263
 3513 2905 4387
 2878 4197 4208
 4432 2727 4466
 2976 2973 4392
 2971 3632 4392
 4054 3352 4407
 3401 3403 4024
 4201 4199 4444
 3380 3411 4100
 4264 4252 4513
 3921 3687 4383
 4676 3846 4864
 4615 3833 4627
 4331 3277 4501
 3404 3406 4364
 3715 3955 4710
 3667 4126 4453
 3191 2939 4377
 3409 3378 4431
 3469 3255 4465
 3653 3230 4293
 4079 4080 4081
 3517 4502 4522
 3393 3492 4319
 3794 4355 4472
 4394 4257 4485
 3263 3591 4382
 2514 59 4032
 2887 2873 4395
 3100 3643 4258
 2748 3050 4258
 4392 3632 4499
 3395 4368 4462
 2943 4181 4463
 3282 3526 4266
 3299 3082 4287
 2540 4006 4434
 4355 2592 4472
 3248 3261 4326
 4181 2947 4325
 3545 3818 4172
 4290 3786 4464
 2573 2571 4490
 2868 2865 4120
 3398 3120 4478
 4475 3802 4548
 3054 3020 4360
 4126 3151 4453
 3170 3783 4145
 3123 3121 4145
 3784 3126 4347
 3125 3128 4347
 3577 3579 4510
 2662 2660 4386
 3177 3179 4321
 3219 3359 4321
 3655 3653 4388
 2843 4302 4304
 65 64 4445
 4238 3577 4510
 3583 3585 4045
 3137 3290 4229
 3514 2785 4242
 2797 2795 4356
 55 56 4020
 4149 4147 4250
 4187 3155 4448
 3130 3096 4301
 3681 3958 4861
 2534 4033 4034
 2779 2781 4236
 2889 2794 4368
 3026 3061 4320
 3096 3094 4300
 2514 4032 4560
 3972 3721 4509
 4032 2538 4651
 4671 3618 4672
 4158 4412 4413
 3116 3253 4278
 3702 3429 4474
 3821 4587 4647
 3942 3964 4802
 2769 2771 4112
 3645 3327 4276
 4325 4324 4507
 3568 4073 4436
 3850 4738 4783
 4426 2540 4489
 2792 2995 4467
 3671 3695 4506
 4243 3122 4244
 3031 3010 4251
 3548 3339 4196
 3769 3479 4294
 3592 4217 4296
 3580 3851 4409
 3627 4123 4124
 3646 4297 4440
 3685 4283 4284
 2557 2559 4420
 2992 4001 4728
 2669 2666 4099
 2727 2734 4466
 3679 3937 4488
 3043 3088 4174
 3298 3635 4174
 4314 4268 4487
 3257 3089 4262
 4018 3456 4880
 2617 2619 4449
 2953 2948 4232
 3003 3319 4220
 3321 2993 4220
 3300 4195 4495
 3868 4292 4512
 3398 4478 4542
 4321 3359 4505
 3371 3373 4451
 4304 4303 4516
 4407 3741 4498
 2804 2808 4517
 4218 4216 4536
 3696 3744 4536
 2592 2590 4472
 2962 2965 4414
 3675 2879 4170
 4221 3789 4319
 3103 4270 4465
 3752 3949 4552
 3956 3428 4527
 3041 4290 4464
 4332 4331 4501
 2902 2899 4107
 2516 45 3992
 3958 3680 4865
 3096 4300 4301
 2841 2843 4304
 3973 3609 4755
 4303 3673 4505
 3796 4357 4493
 3965 3184 4800
 3811 3649 4156
 3836 3734 4482
 4719 3619 4901
 4069 2655 4515
 3517 4227 4502
 3264 3322 4405
 4199 4408 4444
 3489 3501 4310
 4119 4392 4499
 3449 3450 4160
 2682 2697 4421
 4095 3630 4525
 3954 3714 4043
 2787 3670 4096
 2789 2786 4096
 2893 2797 4357
 2985 3165 4333
 3001 2986 4333
 3969 3957 4636
 2789 4096 4097
 4017 4426 4489
 3685 4284 4285
 4136 4138 4572
 4336 4337 4537
 3857 4241 4803
 4121 4106 4456
 4035 4784 4923
 2950 3154 4508
 3665 3758 4474
 4324 3551 4507
 2775 2779 4237
 3429 3272 4322
 3324 3705 4179
 3301 2724 4179
 2797 4356 4357
 3151 4129 4453
 3467 3318 4047
 53 54 4028
 2701 2694 4398
 3503 4470 4471
 4342 3395 4460
 3023 3041 4464
 2779 4236 4237
 3835 3525 4354
 3429 4322 4474
 2984 3014 4373
 3129 3127 4459
 3213 3060 4298
 4060 3087 4763
 3155 3157 4448
 2948 2946 4230
 2732 3032 4480
 2880 2878 4208
 4366 3451 4545
 4209 4113 4506
 3792 4341 4439
 3343 3257 4263
 3949 3948 4702
 4227 4228 4502
 4483 3807 4577
 3705 3770 4447
 4356 3642 4493
 2973 2971 4392
 4066 3753 4552
 2534 57 4033
 3669 4097 4581
 4431 4223 4504
 75 2523 4021
 4031 4030 4529
 3555 3762 4546
 3108 4289 4468
 4460 3395 4462
 4143 4142 4495
 3530 3401 4024
 4050 4051 4492
 3411 3626 4100
 3257 4262 4263
 2948 4230 4232
 2762 3201 4240
 3490 4455 4686
 4257 3368 4485
 3687 3439 4383
 4110 4013 4533
 3069 3068 4116
 4175 2788 4467
 2616 2614 4081
 2614 4079 4081
 4279 3800 4496
 4340 2852 4516
 3387 2716 4416
 4291 3622 4878
 3932 3404 4364
 2894 4095 4525
 4440 3555 4546
 3625 3568 4436
 3703 3191 4377
 3255 3103 4465
 4105 4104 4532
 3792 4439 4508
 4555 3521 4606
 3117 3393 4319
 4335 3108 4518
 4432 4466 4532
 3439 3263 4382
 3199 4384 4590
 2921 2919 4367
 3388 3391 4411
 51 50 4556
 2537 68 4563
 69 2525 4563
 4223 4141 4504
 3050 3100 4258
 3693 3881 4553
 3651 3800 4279
 3880 4363 4522
 4086 3518 4854
 2929 2949 4136
 2705 4282 4535
 4369 4533 4843
 4418 2722 4480
 2510 4022 4023
 3983 3867 4715
 2700 4370 4475
 3451 4459 4545
 3832 3636 4527
 3476 3414 4061
 3012 2983 4246
 3359 3248 4326
 2969 2967 4082
 2988 3001 4273
 3544 3545 4172
 4445 2529 4526
 3634 2868 4120
 3739 3916 3917
 3120 3105 4478
 2824 2822 4566
 3195 3054 4360
 3485 3247 4659
 2963 2799 4559
 4439 2956 4508
 3690 4431 4504
 3121 3170 4145
 3635 3831 4470
 3499 4402 4403
 3703 4377 4463
 3126 3125 4347
 4357 4356 4493
 3673 4234 4505
 3153 2662 4386
 3439 4382 4383
 4240 4154 4677
 3179 3219 4321
 3907 3908 4043
 3594 4343 4450
 4113 3671 4506
 4635 3859 4804
 3903 3655 4388
 4049 4050 4492
 4083 3485 4473
 4052 4049 4492
 3833 3706 4570
 4191 4192 4540
 4260 2998 4582
 3159 4209 4506
 2823 2874 4567
 4245 3782 4457
 4365 2885 4585
 4142 3300 4495
 51 52 4026
 3793 3514 4242
 4378 4352 4515
 4415 4416 4417
 3084 2894 4525
 4457 3782 4458
 4453 4132 4534
 3675 4170 4503
 3735 3703 4550
 3435 4278 4279
 4117 3625 4437
 2540 4434 4489
 3927 3761 4501
 3963 4314 4487
 3502 4052 4492
 4374 3791 4561
 4141 4433 4504
 4368 3663 4462
 3768 4047 4048
 3833 4570 4627
 3021 4374 4561
 2527 63 4588
 3061 3117 4320
 3571 3836 4571
 3721 3469 4509
 2907 3513 4118
 2931 2909 4118
 4493 3642 4494
 4510 3888 4528
 77 2536 4036
 2523 76 4036
 3998 3031 4523
 3087 4060 4868
 3117 4319 4320
 2721 2710 4548
 4078 3503 4471
 4408 4390 4444
 3253 3651 4278
 4030 2537 4529
 3724 3420 4323
 3231 3276 4323
 3916 4605 4772
 2955 2769 4112
 4280 3022 4541
 4218 3201 4834
 3841 2558 4594
 2885 4208 4519
 3893 4354 4782
 4269 3718 4579
 4501 3277 4568
 3788 4344 4469
 4259 3681 4441
 4288 3658 4479
 4020 2534 4732
 2788 2792 4467
 4449 2705 4535
 3732 3730 4609
 3980 4454 4521
 4461 4460 4462
 3022 4464 4541
 4216 3696 4536
 3939 3548 4196
 2655 4378 4515
 4758 2846 4844
 2855 2853 4590
 2856 3199 4590
 2522 55 4020
 3285 4207 4705
 3367 3424 4046
 3625 4436 4437
 3783 3580 4409
 3798 2557 4420
 3742 3646 4440
 4539 3689 4582
 3195 4406 4669
 3663 2669 4099
 2886 3967 4761
 3641 3639 4805
 3952 3309 4117
 3261 3249 4576
 2736 4362 4614
 3088 3298 4174
 3284 3287 4224
 4077 4078 4471
 4228 3675 4502
 4280 4541 4642
 4474 3758 4547
 4243 4244 4483
 3356 4298 4484
 3776 4624 4769
 4033 2514 4531
 3609 3973 4908
 3702 4474 4547
 4491 2530 4594
 4472 3076 4544
 3890 3614 4554
 2579 2563 4424
 64 4035 4588
 2993 3003 4220
 3447 3726 4573
 75 74 4644
 2911 2931 4358
 3105 4107 4478
 3114 4116 4117
 4272 3006 4497
 2683 2680 4417
 3102 4394 4584
 3807 3808 4577
 4206 3474 4486
 4100 3626 4454
 4506 3695 4569
 2693 4111 4635
 2691 2690 4635
 4462 3663 4597
 2802 2804 4517
 2965 3031 4414
 4394 4485 4584
 4011 4445 4526
 3753 3752 4552
 3428 3701 4527
 3650 3749 4622
 4326 3261 4514
 4012 4011 4526
 2912 4182 4186
 3739 3915 3916
 3105 2902 4107
 4026 2535 4736
 3909 3765 4607
 3521 4053 4606
 3700 3375 4610
 4306 3754 4920
 3449 4160 4524
 3674 4351 4497
 3819 4630 4642
 4130 4449 4535
 3761 4332 4501
 2708 2700 4475
 4146 2845 4641
 2941 2937 4572
 3296 3544 4604
 3507 3236 4316
 4181 4325 4507
 4253 3512 4513
 4387 4243 4483
 4466 3643 4532
 3793 4242 4476
 3492 3489 4310
 4013 4012 4533
 3762 3960 4827
 2684 2682 4421
 3079 3855 4609
 4133 4130 4535
 2730 2726 4596
 4192 2941 4540
 2786 2787 4096
 4038 3623 4650
 3699 3971 4826
 4464 3786 4541
 3364 4103 4534
 3667 4453 4534
 2986 2985 4333
 4658 3700 4929
 4263 4159 4554
 3694 4415 4663
 3618 3979 4847
 4104 4432 4532
 3516 4119 4499
 2956 2950 4508
 3658 3660 4479
 4410 3798 4420
 4287 4171 4599
 3582 3763 4338
 3588 3584 4338
 3614 4263 4554
 2724 3324 4179
 2531 2544 3981
 73 74 4022
 3907 4043 4595
 4103 3667 4534
 4351 4272 4497
 3768 3467 4047
 3678 4087 4809
 4169 3505 4511
 3957 3605 4636
 3959 2913 4358
 3211 3993 4423
 3794 4472 4544
 4159 3692 4554
 2723 2717 4412
 4152 4077 4471
 3309 3114 4117
 3113 3057 4277
 2756 3163 4277
 4463 4181 4507
 59 3983 4715
 3422 4308 4543
 4451 3693 4553
 3004 4089 4632
 3632 4082 4500
 3153 4591 4597
 3014 3055 4373
 3356 3213 4298
 4478 3795 4542
 2536 78 4038
 79 2513 4038
 4327 4309 4558
 2722 2732 4480
 4415 3387 4416
 3786 3819 4541
 4102 4101 4569
 3583 4045 4046
 3839 4275 4524
 4492 4051 4575
 3628 3627 4617
 2751 4264 4603
 4163 4165 4695
 3513 4387 4483
 4459 3783 4545
 3684 4515 4565
 3793 4476 4477
 3788 4469 4520
 3798 4410 4555
 4388 3422 4543
 4054 4407 4498
 3277 4312 4568
 3149 4114 4553
 2535 53 4028
 4502 3675 4503
 3159 4506 4569
 2735 2736 4614
 4336 4537 4613
 4553 3881 4611
 3982 3704 4814
 4307 3794 4544
 2522 4020 4620
 2759 2762 4240
 3460 3989 4692
 3705 4447 4452
 3114 3069 4116
 74 4021 4022
 3936 3702 4547
 3437 4267 4629
 3502 4492 4575
 4386 4381 4591
 2550 4757 4875
 3927 4501 4568
 3876 4004 4562
 4361 4362 4521
 3950 3522 4686
 4075 3624 4706
 3784 4238 4510
 4114 4451 4553
 3873 3304 4630
 2802 4517 4559
 4504 4433 4587
 74 75 4021
 2935 4186 4578
 4390 3102 4444
 3133 4327 4558
 3537 3756 4637
 3152 4152 4598
 4499 3632 4500
 3418 3260 4619
 3565 3531 4691
 3512 4054 4498
 2548 2519 3984
 3703 4463 4550
 2954 2921 4367
 2761 3388 4411
 2653 2654 4647
 3718 4296 4579
 3941 3942 4699
 2934 2929 4136
 4303 4505 4593
 3139 4070 4586
 3626 4361 4521
 3550 3865 4668
 4230 4231 4539
 3616 4191 4634
 4275 3449 4524
 3332 3330 4595
 4515 4352 4565
 3063 3036 4673
 3855 2739 4614
 3751 3476 4061
 3774 3944 4618
 4499 4500 4583
 3541 4282 4902
 2892 3084 4682
 3075 3012 4246
 3498 3518 4084
 4180 3905 4824
 4090 2930 4626
 3632 2969 4082
 3878 4393 4583
 2990 2988 4273
 2708 4475 4548
 2721 4548 4600
 3442 3561 4589
 2822 2881 4566
 3260 3246 4684
 4659 3977 4823
 3987 3565 4691
 3935 3936 4566
 68 69 4563
 2799 2802 4559
 4346 3684 4565
 3364 4534 4599
 4529 4543 4850
 4444 3102 4584
 3854 3499 4403
 4296 4217 4579
 3146 3240 4661
 3713 3868 4574
 2510 73 4022
 2886 4801 4934
 4182 4183 4186
 3464 3711 4658
 4463 4507 4550
 4339 4340 4638
 3706 3792 4570
 4376 4777 4798
 4354 3893 4873
 4276 3502 4575
 3948 3751 4538
 3903 4388 4543
 3492 4221 4319
 3966 4221 4601
 3078 4068 4742
 4461 4462 4597
 3400 3907 4595
 2821 2823 4567
 3645 4276 4575
 4508 3154 4570
 3419 3603 4523
 2798 2963 4664
 3108 4468 4518
 3355 4094 4718
 4343 3891 4612
 3095 3097 4679
 3901 3205 4657
 3751 4061 4538
 3994 4338 4624
 62 61 4699
 3474 4224 4486
 4514 3261 4885
 4534 4132 4599
 4352 3523 4565
 4073 4072 4618
 4631 3805 4707
 3989 3990 4692
 4484 3669 4581
 2741 4254 4680
 4672 3618 4847
 3532 3565 4703
 3196 3195 4669
 2813 3251 4678
 4261 4014 4914
 4034 4033 4531
 4232 4230 4539
 4118 3513 4577
 3929 3927 4568
 3797 4335 4518
 3513 4483 4577
 2671 2667 4702
 4350 3874 4607
 4433 2653 4587
 3742 4440 4546
 3972 4509 4571
 2577 2583 4676
 4215 4213 4616
 4548 3802 4600
 4372 3021 4608
 4189 4188 4689
 4305 3644 4610
 3206 4442 4733
 3644 3434 4671
 4260 4582 4637
 3097 3131 4692
 3792 4508 4570
 4037 3750 4688
 4454 3626 4521
 2824 4566 4791
 3690 4504 4587
 3153 4386 4591
 2679 2684 4639
 2515 51 4026
 3889 3652 4710
 4486 3847 4592
 4099 3153 4597
 4101 3159 4569
 3785 3571 4571
 3206 2677 4639
 3484 3529 4690
 2909 2907 4118
 2851 2848 4695
 3784 4510 4528
 3036 2758 4677
 76 75 4653
 4124 3162 4717
 2710 2708 4548
 3827 4345 4628
 3795 3796 4542
 3516 4499 4583
 3966 4601 4712
 2891 4592 4793
 4591 4461 4597
 3420 3231 4323
 3320 4353 4648
 3321 4220 4655
 2558 2556 4594
 3821 3690 4587
 4151 4148 4589
 3491 3844 4706
 3149 4553 4611
 4282 4281 4902
 3058 3070 4071
 3365 3791 4071
 4596 2726 4833
 3975 4189 4851
 3730 4064 4609
 63 64 4588
 4496 3800 4736
 4183 4184 4578
 4505 3359 4593
 4502 4503 4522
 3074 3184 4712
 2525 70 4662
 3725 3291 4709
 3708 3797 4518
 76 77 4036
 4606 4053 4666
 4648 4353 4731
 2853 2856 4590
 3424 3583 4046
 2923 2954 4697
 4154 4240 4882
 4471 4470 4598
 3573 3933 4400
 3835 4354 4873
 4120 3396 4615
 3512 4498 4513
 4295 3645 4645
 3627 4124 4617
 3726 3446 4528
 2934 4136 4572
 4395 3634 4627
 3249 3264 4576
 3039 3002 4728
 2657 4397 4714
 4537 3853 4891
 3474 3284 4224
 3542 3543 4716
 4201 4444 4584
 4094 4055 4652
 4278 3651 4279
 3952 4117 4437
 3872 3945 4700
 4149 4250 4632
 3802 3849 4600
 4311 3435 4711
 3930 3488 4781
 4498 3741 4603
 2509 44 4861
 2573 4490 4696
 3762 3760 4735
 2527 3969 4836
 3691 3745 4586
 4138 4139 4634
 2625 2629 4723
 4517 2808 4774
 4424 4425 4555
 4489 4434 4646
 3914 3510 4396
 2584 3198 4720
 3076 2587 4720
 3634 4120 4615
 60 59 4715
 4080 3939 4895
 2998 4232 4582
 4635 4111 4916
 4570 3154 4627
 2832 3160 4726
 3035 4403 4430
 3717 2579 4424
 4716 3543 4806
 3808 3447 4573
 4604 3544 4670
 2913 2911 4358
 4210 3827 4708
 4281 2623 4723
 3698 3595 4724
 82 2511 4878
 2761 4411 4412
 3685 4285 4691
 3446 3784 4528
 2670 2791 4750
 2736 2720 4725
 3111 3285 4705
 4381 3306 4693
 4424 4555 4606
 4266 3810 4636
 3775 4349 4730
 4417 2681 4663
 4105 4532 4604
 3663 4099 4597
 4412 4411 4413
 4313 3008 4721
 2690 2693 4635
 2885 4519 4585
 4784 3896 4923
 3991 2670 4750
 4236 3676 4701
 3841 4594 4653
 4509 3785 4571
 3783 4409 4545
 4152 4471 4598
 4264 4513 4603
 3399 3425 4752
 4206 4486 4592
 3842 3556 4760
 74 2518 4644
 4042 4041 4811
 2560 3841 4738
 3453 4237 4701
 4468 3650 4622
 4075 2672 4734
 4125 3016 4790
 3319 3457 4753
 4250 3004 4632
 4513 4498 4603
 3375 4305 4610
 4225 3870 4894
 3081 2745 4744
 3765 4350 4607
 4247 3788 4520
 4274 3080 4842
 3722 4656 4687
 3299 4287 4660
 2751 4603 4685
 3152 4598 4675
 4255 2834 4726
 3163 2754 4727
 2752 3079 4727
 3087 2961 4763
 4346 4565 4628
 4171 3364 4599
 3285 4205 4788
 4213 3709 4754
 4085 4086 4626
 3609 3338 4755
 3135 3136 4755
 4135 3633 4681
 2937 2934 4572
 3643 3296 4604
 3511 3507 4316
 4248 4247 4520
 3862 3609 4908
 4207 3285 4788
 3359 4326 4593
 3910 4517 4774
 4035 2512 4784
 2712 3150 4833
 3698 4724 4886
 4232 4539 4582
 4487 2955 4840
 3251 2815 4761
 2817 2886 4761
 3818 3934 4816
 3922 3923 4778
 4435 3453 4701
 4531 2514 4560
 4393 3516 4583
 4560 4032 4651
 3501 3720 4936
 3982 2544 4841
 2743 2730 4596
 3396 4125 4722
 4479 3660 4549
 4415 4417 4663
 3289 3104 4773
 4519 4203 4585
 4712 4601 4904
 3772 3511 4317
 4102 4569 4633
 3356 4484 4580
 2551 2548 4443
 4354 3787 4782
 3899 3780 4767
 3633 4102 4633
 3524 3759 4765
 3824 3823 4717
 4127 3149 4611
 3139 4586 4652
 4239 3656 4698
 3823 4124 4717
 3874 3778 4817
 4202 4207 4788
 3670 3842 4580
 4565 3523 4628
 3511 4316 4317
 4219 3852 4818
 4204 4201 4584
 4637 3756 4721
 3647 3743 4792
 3416 3683 4775
 4053 3747 4666
 2810 3085 4774
 4824 3905 4935
 3799 3910 4777
 3933 3572 4742
 3584 3582 4338
 4108 3198 4914
 3589 3590 4785
 3856 3857 4937
 3624 4173 4706
 3021 4561 4608
 2959 4122 4763
 3031 4251 4523
 4086 4090 4626
 2845 2826 4791
 4348 3723 4871
 2990 4273 4530
 3355 4718 4794
 4507 3551 4550
 3594 4450 4724
 3678 3508 4649
 4516 4303 4593
 2768 2955 4819
 63 62 4802
 3743 3959 4913
 3744 4154 4882
 4163 4695 4813
 4532 3643 4604
 3770 3771 4821
 2717 2761 4412
 4576 3264 4621
 4427 3092 4748
 3057 2756 4277
 2886 2819 4801
 3506 3678 4809
 4566 3936 4791
 2589 3206 4733
 3144 3146 4858
 4229 3589 4704
 2635 2633 4810
 4430 3913 4898
 4165 4162 4884
 3739 3917 4044
 2842 3182 4813
 2955 4269 4819
 4765 3962 4915
 2759 4240 4677
 3769 4294 4756
 3895 3896 4784
 4680 4254 4867
 4562 3560 4852
 4542 3796 4656
 3781 4461 4693
 3782 3804 4458
 4301 4300 4751
 4254 2751 4685
 3368 4373 4713
 62 2527 4836
 2538 61 4836
 2532 3970 4825
 82 81 2511
 4573 3719 4674
 2550 4438 4757
 3804 3950 4631
 78 79 4038
 4178 4596 4833
 3764 3833 4722
 3086 3039 4839
 3999 3254 4839
 4654 4139 4789
 4000 3999 4839
 3869 3902 4930
 4723 2629 4881
 3201 2764 4834
 2766 3027 4834
 3733 3704 4841
 3767 3975 4851
 2739 2735 4614
 3867 3921 4623
 4518 4468 4622
 3299 4660 4745
 4547 3758 4641
 3497 3748 4854
 3075 4246 4631
 4210 4708 4779
 3692 3686 4883
 4164 4161 4918
 3540 3541 4902
 70 71 4662
 3620 3817 4885
 3325 2719 4903
 2583 2585 4900
 3490 2989 4917
 4372 4608 4694
 4207 4204 4713
 2536 4038 4650
 3402 4193 4747
 4246 3804 4631
 4434 4014 4646
 3605 4266 4636
 2516 3992 4605
 4470 3831 4598
 4249 3078 4742
 4029 2522 4620
 4586 3745 4652
 2949 3978 4743
 4544 4110 4896
 2518 4019 4783
 3269 3976 4659
 3302 3736 4893
 3893 3779 4873
 4450 4343 4612
 3734 3437 4629
 3804 4246 4458
 4190 4511 4807
 4589 4148 4808
 4630 3674 4642
 3544 4172 4670
 3723 4318 4771
 4140 4137 4743
 3645 4575 4645
 4060 4058 4868
 2935 4578 4799
 4373 3055 4705
 4582 3689 4637
 3522 3490 4686
 3903 4529 4830
 4345 4346 4628
 4569 3695 4633
 3878 4583 4648
 2581 4235 4838
 4561 4045 4608
 3695 3829 4633
 4580 4484 4581
 3304 3674 4630
 4045 3716 4608
 4153 3860 4910
 4425 3798 4555
 4790 3016 4884
 4057 3147 4768
 3901 4657 4787
 2523 4688 4780
 4309 3288 4932
 4144 3152 4675
 4188 4448 4689
 3278 3725 4848
 4577 3808 4643
 3879 3880 4665
 4014 4009 4914
 4540 4138 4634
 3689 3537 4637
 3984 3985 4443
 3932 4364 4771
 3924 3418 4619
 3531 3685 4691
 3720 4574 4936
 4786 3200 4869
 3670 4580 4581
 4287 4599 4660
 4651 2538 4837
 4497 4280 4642
 4481 4222 4845
 4328 3133 4821
 4792 3743 4913
 4383 3754 4729
 3161 4339 4638
 3028 4456 4740
 4105 4604 4670
 4177 4176 4860
 3160 4146 4855
 3553 3906 4862
 3288 4447 4932
 3520 3768 4901
 2654 2657 4647
 3757 3931 4749
 3405 3932 4654
 4334 4306 4828
 4067 3392 4876
 3508 3510 4649
 3930 4781 4893
 3817 4514 4885
 4613 4537 4770
 3758 3843 4641
 4255 3838 4844
 3154 4395 4627
 4055 3139 4652
 4598 3831 4675
 4072 3774 4618
 4558 3770 4821
 4195 4194 4935
 3662 3988 4912
 3810 3712 4651
 4051 4429 4645
 4397 3200 4786
 4730 4349 4872
 3551 3550 4668
 4380 4391 4820
 3988 3001 4818
 3330 3400 4595
 3184 4265 4800
 3492 4310 4601
 4575 4051 4645
 3136 3063 4673
 4556 50 4557
 3183 4313 4776
 2796 2892 4682
 3912 3498 4084
 4118 4577 4643
 3981 2544 3982
 3264 4405 4621
 3676 4765 4915
 4295 4645 4737
 4435 3963 4840
 4500 3320 4648
 3356 4580 4684
 3444 3442 4589
 2701 4398 4903
 3735 4550 4668
 3840 3958 4865
 3246 3356 4684
 4816 3934 4900
 4140 4312 4789
 4656 4494 4687
 4404 3699 4826
 4132 4131 4660
 3415 3621 4729
 4668 3865 4747
 3421 4299 4851
 4353 3399 4731
 2721 3979 4725
 4308 3895 4850
 4313 4721 4776
 4106 4105 4670
 3240 3432 4661
 4221 3492 4601
 3824 4717 4799
 3656 4286 4872
 4503 3321 4655
 4191 4540 4634
 4048 4427 4748
 4639 2684 4905
 3899 4767 4858
 4670 4172 4740
 4251 3419 4523
 4643 3808 4674
 3876 4562 4800
 3878 4648 4731
 4186 4183 4578
 4248 4520 4613
 2931 4118 4643
 3660 3728 4549
 4757 3994 4875
 3198 4261 4914
 3694 4400 4741
 4371 2741 4680
 4801 3940 4934
 3001 4333 4818
 3743 3742 4683
 4655 4220 4665
 3754 3415 4729
 4406 3883 4669
 4294 4295 4737
 4640 3856 4937
 4666 3747 4759
 4092 3464 4658
 2995 2798 4664
 4300 3299 4745
 3674 4497 4642
 3162 4226 4717
 3591 3196 4669
 3288 3095 4679
 3214 4372 4694
 4048 4047 4797
 4248 4613 4770
 3205 3708 4657
 4610 3644 4907
 2676 4081 4822
 2955 4112 4840
 4603 3741 4685
 3859 4635 4916
 3880 4655 4665
 3950 4686 4889
 4031 4529 4850
 4616 4213 4754
 3712 4560 4651
 4533 4012 4843
 3742 4546 4683
 4593 4326 4667
 3945 3871 4662
 2743 4596 4744
 3536 3532 4703
 2821 4567 4801
 3880 4522 4655
 4467 2995 4782
 4036 4037 4688
 2812 2813 4678
 4619 3842 4760
 2667 2674 4702
 4122 3355 4794
 49 2520 4557
 4583 4500 4648
 2575 2577 4676
 4398 3920 4903
 4164 4166 4758
 4714 4397 4786
 4546 3762 4827
 3976 3977 4659
 4516 4593 4667
 4493 4494 4656
 3831 3832 4675
 4494 3289 4687
 3434 3618 4671
 3131 3460 4692
 4608 3716 4694
 3827 4628 4708
 4438 4423 4757
 3402 4747 4815
 3884 3811 4680
 4580 3842 4684
 4340 4516 4667
 4693 3306 4767
 4094 4652 4718
 4326 4514 4667
 2677 2679 4639
 4127 4611 4734
 3652 4389 4710
 3830 4178 4764
 3990 4452 4877
 3638 3484 4690
 2525 4662 4930
 4788 4205 4899
 3247 3269 4659
 3961 3962 4765
 2523 4036 4688
 4338 3763 4624
 2544 2543 4733
 2848 2844 4695
 3822 3821 4714
 4001 4000 4728
 2758 2759 4677
 4235 2573 4696
 61 2508 4699
 3251 3972 4796
 4599 4132 4660
 3943 3773 4739
 4461 4591 4693
 4277 3163 4805
 4211 4210 4779
 4329 4719 4901
 4664 3874 4817
 4329 4328 4719
 4137 2949 4743
 2546 2547 4928
 4260 4637 4721
 2796 4682 4750
 3716 3813 4694
 3710 4229 4704
 3873 4630 4716
 4448 3597 4689
 4622 3749 4657
 4549 3728 4602
 2530 76 4653
 3913 3914 4898
 3161 4638 4746
 4529 2537 4830
 3150 4135 4681
 3708 4518 4622
 4205 4206 4899
 3070 3365 4071
 3896 4890 4923
 4890 3968 4923
 4307 4544 4896
 3814 3996 4804
 3560 3879 4852
 4660 4131 4745
 3796 4493 4656
 3868 4512 4936
 3732 4609 4879
 4511 3505 4809
 3138 3074 4712
 3971 3699 4911
 3933 4742 4876
 3741 3740 4685
 3291 3553 4709
 3523 3226 4708
 4564 2526 4891
 4524 4164 4758
 3406 4239 4698
 4550 3551 4668
 3558 3877 4853
 3851 3722 4687
 4645 4429 4737
 4724 3897 4886
 3873 4716 4806
 4594 2530 4653
 3892 4610 4907
 2954 4367 4735
 4110 4544 4888
 4173 3491 4706
 2925 2923 4697
 4485 4204 4584
 4254 4685 4867
 4547 4641 4922
 4496 4029 4711
 4143 4495 4704
 3668 3573 4400
 4279 4496 4711
 3682 4428 4865
 3515 3805 4889
 4592 3847 4793
 3639 4277 4805
 2855 4590 4730
 3833 4615 4722
 4044 3917 4845
 3002 2992 4728
 2508 60 4715
 4650 3623 4898
 4495 3710 4704
 3819 3542 4716
 4285 4639 4905
 4312 3405 4789
 3734 4629 4798
 4235 4646 4838
 3829 3830 4764
 3747 4134 4759
 3403 3402 4815
 3841 4644 4738
 4074 3844 4881
 4522 4503 4655
 4237 4236 4701
 3850 2560 4738
 3728 3738 4602
 4749 3931 4917
 3760 3926 4735
 2534 4034 4732
 4106 4670 4740
 2510 4023 4700
 4762 4042 4811
 2623 2625 4723
 4722 4125 4790
 4799 4578 4863
 3979 3980 4725
 2587 2584 4720
 4087 4626 4807
 3889 4710 4857
 4455 3801 4686
 4672 3849 4781
 3214 4694 4766
 3700 4610 4929
 3808 4573 4674
 4813 3182 4918
 2834 2832 4726
 3008 4260 4721
 3725 4366 4927
 4755 3136 4910
 3595 3594 4724
 3334 4754 4797
 4148 4149 4808
 3863 4671 4672
 2791 2796 4750
 4014 4261 4838
 3076 4720 4888
 3717 4606 4666
 2720 2721 4725
 4661 3432 4795
 3055 3111 4705
 3914 4650 4898
 2643 2637 4859
 4282 3541 4849
 3917 4481 4845
 3035 2533 4892
 3811 4371 4680
 4523 3603 4778
 4366 4545 4927
 4429 2643 4737
 3717 4424 4606
 3745 3828 4718
 3805 3806 4707
 4384 3775 4730
 4423 3993 4757
 3877 3878 4731
 3709 3815 4754
 4422 3717 4666
 3993 3994 4757
 4526 3964 4843
 3334 4616 4754
 2672 4127 4734
 3845 4723 4881
 4768 3862 4908
 4717 4226 4799
 3668 4400 4401
 3425 3953 4752
 3541 4301 4751
 3921 4383 4729
 4131 4133 4745
 3543 3606 4806
 4403 3035 4892
 4530 3977 4749
 3848 4001 4793
 4220 3319 4665
 3392 4741 4876
 4256 3759 4909
 3556 3707 4760
 44 4 4861
 3444 4589 4808
 4694 3813 4766
 3457 3820 4753
 3800 3889 4736
 3826 3825 4862
 4628 3523 4708
 4375 3161 4746
 3092 4329 4748
 4729 3621 4933
 4708 3226 4779
 2548 3984 4443
 4591 4381 4693
 3977 3757 4749
 2745 2743 4744
 4657 3749 4787
 3978 3929 4743
 3435 4279 4711
 4695 2844 4813
 4641 2845 4922
 4193 3735 4747
 4315 3911 4911
 2754 2752 4727
 2961 2959 4763
 3951 3769 4756
 4636 3810 4837
 4 4027 4098
 3338 3135 4755
 4674 3719 4792
 4554 3692 4762
 3406 4698 4871
 4456 4106 4740
 3998 4523 4778
 2846 4255 4844
 4391 3214 4766
 3813 3858 4766
 4662 3871 4930
 3708 4622 4657
 3682 3668 4401
 2520 3982 4814
 2815 2817 4761
 4110 4533 4896
 3964 4369 4843
 3923 3998 4778
 3884 4680 4867
 4669 3883 4828
 4196 3898 4895
 3138 4712 4904
 3912 4084 4649
 4019 4018 4783
 4092 4658 4929
 3591 4669 4828
 4678 3251 4796
 3200 4093 4869
 3768 4048 4748
 4590 4384 4730
 3104 3278 4773
 4063 4786 4869
 4214 2575 4864
 4047 3334 4797
 2543 2589 4733
 3075 4631 4707
 3986 4057 4768
 3780 3781 4767
 3676 3524 4765
 4063 3822 4786
 2990 4530 4749
 4133 4535 4849
 4718 3828 4794
 4848 3725 4927
 4203 4202 4788
 3735 4668 4747
 2855 4730 4872
 3821 4647 4714
 3572 4249 4742
 3959 4358 4913
 4485 3368 4713
 4806 3606 4890
 4609 3855 4879
 3749 3997 4787
 3598 4481 4772
 3986 3861 4886
 4422 4666 4759
 3756 3856 4776
 3719 3647 4792
 4679 3990 4877
 4759 4134 4835
 4630 3819 4716
 4626 2930 4807
 3859 3814 4804
 3597 3416 4775
 2808 2810 4774
 3806 3080 4707
 3776 2546 4928
 3456 4419 4880
 3759 3835 4909
 3738 3739 4044
 4318 3607 4771
 3028 4740 4816
 4226 2935 4799
 3958 2509 4861
 4376 3799 4777
 3590 3882 4785
 3226 4330 4779
 3680 3682 4865
 4533 3459 4896
 4652 3745 4718
 2512 4031 4784
 3839 4758 4844
 3854 4564 4891
 4167 3764 4790
 2826 2824 4791
 3839 4524 4758
 2990 4749 4917
 4333 4219 4818
 3890 4554 4762
 3849 3777 4781
 2537 4563 4830
 2637 2635 4859
 3810 4651 4837
 3597 4775 4803
 4021 2523 4780
 4409 3851 4848
 4419 3850 4880
 4747 3865 4815
 4610 3892 4929
 4544 3076 4888
 4721 3756 4776
 3432 3755 4795
 3781 4693 4767
 4615 3396 4722
 4240 3201 4882
 4686 3801 4889
 4685 3740 4867
 2930 4190 4807
 3787 4467 4782
 4265 3876 4800
 4139 4140 4789
 4359 4792 4913
 4742 4068 4876
 4571 3836 4796
 3704 3885 4814
 2629 4074 4881
 3536 3997 4866
 4647 2657 4714
 3803 3862 4812
 2819 2821 4801
 4375 4746 4824
 3505 3506 4809
 2529 63 4802
 3921 4729 4933
 2526 3 4770
 3666 3558 4853
 4447 3770 4932
 3969 4636 4837
 3925 3924 4919
 4828 4306 4920
 3773 3641 4897
 3828 4060 4794
 3847 3848 4793
 3894 3873 4806
 3644 4671 4907
 3861 3698 4886
 4362 3732 4879
 4222 3265 4845
 2633 3140 4810
 3812 3890 4831
 3369 4380 4820
 4644 2518 4738
 4754 3815 4797
 3147 4379 4812
 2844 2842 4813
 2681 4428 4829
 4184 4185 4863
 3977 4530 4823
 2737 4422 4759
 2845 4791 4922
 50 49 4557
 3606 3968 4890
 3822 4714 4786
 3898 3803 4832
 4681 3829 4764
 4400 3933 4741
 3972 4571 4796
 3778 3893 4817
 4906 4273 4924
 4442 3733 4841
 3740 3536 4866
 3970 3971 4825
 3027 2768 4819
 4767 3306 4858
 3865 4225 4815
 4482 3734 4798
 3890 4811 4831
 4041 2521 4811
 4167 4790 4884
 4588 4035 4923
 4428 3682 4829
 2737 4759 4835
 4781 3777 4893
 3911 3812 4856
 4172 3818 4816
 3770 4558 4932
 4389 3837 4846
 4811 2521 4831
 2521 4005 4831
 4204 4485 4713
 3902 3903 4830
 2726 2712 4833
 3947 2737 4835
 4775 3683 4937
 4134 3919 4835
 3883 4334 4828
 3001 3988 4924
 2860 4375 4824
 3254 3086 4839
 61 62 4836
 3201 4536 4882
 3960 2938 4827
 4185 3824 4863
 4241 3421 4870
 3838 3839 4844
 4081 4080 4822
 4068 4067 4876
 3080 3075 4707
 4150 3444 4808
 3894 4806 4890
 4261 2581 4838
 2764 2766 4834
 3997 3884 4866
 4269 4579 4819
 4176 3864 4860
 3803 4812 4832
 4379 2676 4832
 3306 3144 4858
 3666 4853 4931
 4690 3529 4846
 3738 4044 4842
 4578 4184 4863
 4624 3763 4769
 3886 4404 4826
 4311 4711 4925
 3392 3694 4741
 3849 4672 4847
 3877 4752 4853
 4563 3902 4830
 3405 4654 4789
 4005 2532 4856
 3879 4753 4852
 4299 3767 4851
 3924 4619 4760
 3939 4196 4895
 4812 4379 4832
 3229 4256 4909
 3779 4211 4873
 3518 3497 4854
 3621 3941 4933
 4741 3933 4876
 3369 4820 4916
 4535 4282 4849
 3686 3866 4883
 3699 4315 4911
 3641 4552 4897
 3843 3666 4931
 3844 3845 4881
 4058 4059 4868
 3764 4722 4790
 4286 2855 4872
 4398 3947 4921
 4162 4167 4884
 4808 4149 4887
 4823 4530 4906
 2860 4824 4935
 3887 3620 4885
 4364 3406 4871
 3 82 4878
 3897 3986 4886
 3855 4614 4879
 4720 4109 4888
 4447 3288 4877
 4109 4110 4888
 3853 3854 4891
 4273 3001 4924
 2547 2550 4928
 4062 4063 4869
 4473 3485 4823
 3870 3872 4894
 3896 3894 4890
 3777 3302 4893
 2989 2990 4917
 3028 4816 4900
 4027 3915 4098
 3809 4473 4906
 4683 4546 4827
 2585 3028 4900
 2719 2701 4903
 4536 3744 4882
 3133 4558 4821
 3801 3515 4889
 3845 3540 4902
 3619 3520 4901
 3860 3973 4910
 2533 4564 4892
 3863 3892 4907
 4552 3949 4897
 3947 4835 4921
 4009 4108 4914
 4150 4808 4887
 3973 3861 4908
 4883 3866 4926
 3812 4831 4856
 3763 4291 4769
 4530 4273 4906
 4161 4163 4918
 3919 3920 4921
 4835 3919 4921
 3866 3983 4926
 4358 4359 4913
 3871 3869 4930
 4359 4674 4792
 4853 3953 4931
 4512 3138 4904
 3809 4906 4924
 3825 4709 4862
 3459 4307 4896
 3962 4435 4915
 3963 4487 4840
 4756 2643 4859
 3988 3809 4924
 4203 4788 4899
 3748 4150 4887
 3843 4488 4855
 2995 4664 4817
 3854 4403 4892
 3973 4755 4910
 4614 4362 4879
 4189 4689 4870
 4473 4823 4906
 4382 3591 4920
 4551 3925 4919
 4751 4133 4849
 3953 4488 4931
 4002 3662 4912
 4012 4526 4843
 3150 4681 4764
 3892 4092 4929
 4111 3369 4916
 4831 4005 4856
 3707 4551 4919
 4701 3676 4915
 4194 2860 4935
 3836 4678 4796
 3917 3916 4772
 4488 3843 4931
 4543 4308 4850
 4740 4172 4816
 3968 4588 4923
 4452 4447 4877
 4710 3955 4857
 4691 4285 4905
 4579 3027 4819
 2684 3987 4905
 3820 4562 4852
 4624 3776 4875
 4739 3773 4897
 3911 4825 4911
 4558 4309 4932
 4703 3901 4787
 4600 3849 4847
 3920 4398 4921
 2550 4875 4928
 4481 3917 4772
 4671 3863 4907
 4760 3707 4919
 2575 4676 4864
 4163 4813 4918
 4689 3597 4803
 4149 4632 4887
 3936 4547 4922
 4646 4014 4838
 3949 4739 4897
 4601 4310 4904
 3924 4760 4919
 4689 4803 4870
 3994 4624 4875
 2938 4683 4827
 4545 4409 4927
 4574 3868 4936
 3941 4623 4933
 3851 4773 4848
 4875 3776 4928
 3837 4690 4846
 3850 4783 4880
 3824 4799 4863
 3898 4822 4895
 4585 4203 4899
 4663 2681 4829
 3288 4679 4877
 3890 4762 4811
 3987 4691 4905
 4310 4512 4904
 4564 3854 4892
 4709 3553 4862
 4401 4663 4829
 4623 3921 4933
 4632 3748 4887
 4029 4620 4925
 4752 3953 4853
 3541 4751 4849
 3683 4640 4937
 4753 3820 4852
 3951 4756 4859
 4435 4701 4915
 4773 3278 4848
 4602 3738 4842
 4409 4848 4927
 4803 4241 4870
 3682 4401 4829
 4783 4018 4880
 4711 4029 4925
 3740 4866 4867
 4866 3884 4867
 4791 3936 4922
 3591 4828 4920
 4874 3229 4909
 3857 4775 4937
 4822 4080 4895
 3835 4874 4909
 4825 3971 4911
 4441 3681 4861
 4248 4770 4878

