!------ mesh data ------
     19726           ! nel
     9871           ! nnode
## Node Coordinates
1 1 2
1 1 0
1 -1.25 2
1 -1.25 0
1 1 -0.25
1 1 -2.25
1 -1.25 -0.25
1 -1.25 -2.25
1.078459095727845 1 0.003082666266872036
1.156434465040231 1 0.01231165940486223
1.233445363855906 0.9999999999999999 0.02763007960232344
1.309016994374948 0.9999999999999999 0.04894348370484669
1.38268343236509 0.9999999999999999 0.07612046748871337
1.453990499739547 0.9999999999999999 0.1089934758116324
1.522498564715949 0.9999999999999999 0.1473598356459079
1.587785252292474 0.9999999999999999 0.190983005625053
1.649448048330185 0.9999999999999999 0.2395940343999697
1.707106781186549 0.9999999999999998 0.2928932188134535
1.760405965600032 0.9999999999999998 0.3505519516698172
1.809016994374948 0.9999999999999998 0.4122147477075281
1.852640164354093 0.9999999999999998 0.4775014352840529
1.891006524188369 0.9999999999999998 0.5460095002604554
1.923879532511287 0.9999999999999998 0.6173165676349121
1.951056516295154 0.9999999999999998 0.6909830056250549
1.972369920397677 0.9999999999999998 0.7665546361440974
1.987688340595138 0.9999999999999998 0.8435655349597715
1.996917333733128 0.9999999999999998 0.9215409042721571
2 0.9999999999999998 1.000000000000002
1.996917333733128 0.9999999999999998 1.078459095727847
1.987688340595137 0.9999999999999998 1.156434465040232
1.972369920397676 0.9999999999999998 1.233445363855907
1.951056516295153 0.9999999999999998 1.309016994374949
1.923879532511286 0.9999999999999998 1.382683432365092
1.891006524188367 0.9999999999999998 1.453990499739548
1.852640164354092 0.9999999999999998 1.52249856471595
1.809016994374947 0.9999999999999998 1.587785252292474
1.76040596560003 0.9999999999999998 1.649448048330184
1.707106781186547 0.9999999999999998 1.707106781186548
1.649448048330183 0.9999999999999999 1.760405965600031
1.587785252292473 0.9999999999999999 1.809016994374948
1.522498564715949 0.9999999999999999 1.852640164354092
1.453990499739546 0.9999999999999999 1.891006524188368
1.38268343236509 0.9999999999999999 1.923879532511287
1.309016994374948 0.9999999999999999 1.951056516295154
1.233445363855905 0.9999999999999999 1.972369920397677
1.156434465040231 1 1.987688340595138
1.078459095727845 1 1.996917333733128
1.078459095727845 -1.25 0.003082666266872036
1.156434465040231 -1.25 0.01231165940486223
1.233445363855906 -1.25 0.02763007960232344
1.309016994374948 -1.25 0.04894348370484669
1.38268343236509 -1.25 0.07612046748871337
1.453990499739547 -1.25 0.1089934758116324
1.522498564715949 -1.25 0.1473598356459079
1.587785252292474 -1.25 0.190983005625053
1.649448048330185 -1.25 0.2395940343999697
1.707106781186549 -1.25 0.2928932188134535
1.760405965600032 -1.25 0.3505519516698172
1.809016994374948 -1.25 0.4122147477075281
1.852640164354093 -1.25 0.4775014352840529
1.891006524188369 -1.25 0.5460095002604554
1.923879532511287 -1.25 0.6173165676349121
1.951056516295154 -1.25 0.6909830056250549
1.972369920397677 -1.25 0.7665546361440974
1.987688340595138 -1.25 0.8435655349597715
1.996917333733128 -1.25 0.9215409042721571
2 -1.25 1.000000000000002
1.996917333733128 -1.25 1.078459095727847
1.987688340595137 -1.25 1.156434465040232
1.972369920397676 -1.25 1.233445363855907
1.951056516295153 -1.25 1.309016994374949
1.923879532511286 -1.25 1.382683432365092
1.891006524188367 -1.25 1.453990499739548
1.852640164354092 -1.25 1.52249856471595
1.809016994374947 -1.25 1.587785252292474
1.76040596560003 -1.25 1.649448048330184
1.707106781186547 -1.25 1.707106781186548
1.649448048330183 -1.25 1.760405965600031
1.587785252292473 -1.25 1.809016994374948
1.522498564715949 -1.25 1.852640164354092
1.453990499739546 -1.25 1.891006524188368
1.38268343236509 -1.25 1.923879532511287
1.309016994374948 -1.25 1.951056516295154
1.233445363855905 -1.25 1.972369920397677
1.156434465040231 -1.25 1.987688340595138
1.078459095727845 -1.25 1.996917333733128
1.078459095727845 1 -2.246917333733128
1.156434465040231 1 -2.237688340595138
1.233445363855906 0.9999999999999999 -2.222369920397677
1.309016994374948 0.9999999999999999 -2.201056516295153
1.38268343236509 0.9999999999999999 -2.173879532511287
1.453990499739547 0.9999999999999999 -2.141006524188367
1.522498564715949 0.9999999999999999 -2.102640164354092
1.587785252292474 0.9999999999999999 -2.059016994374947
1.649448048330185 0.9999999999999999 -2.01040596560003
1.707106781186549 0.9999999999999998 -1.957106781186547
1.760405965600032 0.9999999999999998 -1.899448048330183
1.809016994374948 0.9999999999999998 -1.837785252292472
1.852640164354093 0.9999999999999998 -1.772498564715947
1.891006524188369 0.9999999999999998 -1.703990499739545
1.923879532511287 0.9999999999999998 -1.632683432365088
1.951056516295154 0.9999999999999998 -1.559016994374945
1.972369920397677 0.9999999999999998 -1.483445363855903
1.987688340595138 0.9999999999999998 -1.406434465040229
1.996917333733128 0.9999999999999998 -1.328459095727843
2 0.9999999999999998 -1.249999999999998
1.996917333733128 0.9999999999999998 -1.171540904272153
1.987688340595137 0.9999999999999998 -1.093565534959768
1.972369920397676 0.9999999999999998 -1.016554636144093
1.951056516295153 0.9999999999999998 -0.9409830056250511
1.923879532511286 0.9999999999999998 -0.8673165676349084
1.891006524188367 0.9999999999999998 -0.7960095002604519
1.852640164354092 0.9999999999999998 -0.7275014352840502
1.809016994374947 0.9999999999999998 -0.6622147477075264
1.76040596560003 0.9999999999999998 -0.6005519516698156
1.707106781186547 0.9999999999999998 -0.5428932188134521
1.649448048330183 0.9999999999999999 -0.489594034399969
1.587785252292473 0.9999999999999999 -0.4409830056250522
1.522498564715949 0.9999999999999999 -0.3973598356459077
1.453990499739546 0.9999999999999999 -0.3589934758116319
1.38268343236509 0.9999999999999999 -0.3261204674887132
1.309016994374948 0.9999999999999999 -0.2989434837048465
1.233445363855905 0.9999999999999999 -0.2776300796023233
1.156434465040231 1 -0.2623116594048623
1.078459095727845 1 -0.253082666266872
1.078459095727845 -1.25 -2.246917333733128
1.156434465040231 -1.25 -2.237688340595138
1.233445363855906 -1.25 -2.222369920397677
1.309016994374948 -1.25 -2.201056516295153
1.38268343236509 -1.25 -2.173879532511287
1.453990499739547 -1.25 -2.141006524188367
1.522498564715949 -1.25 -2.102640164354092
1.587785252292474 -1.25 -2.059016994374947
1.649448048330185 -1.25 -2.01040596560003
1.707106781186549 -1.25 -1.957106781186547
1.760405965600032 -1.25 -1.899448048330183
1.809016994374948 -1.25 -1.837785252292472
1.852640164354093 -1.25 -1.772498564715947
1.891006524188369 -1.25 -1.703990499739545
1.923879532511287 -1.25 -1.632683432365088
1.951056516295154 -1.25 -1.559016994374945
1.972369920397677 -1.25 -1.483445363855903
1.987688340595138 -1.25 -1.406434465040229
1.996917333733128 -1.25 -1.328459095727843
2 -1.25 -1.249999999999998
1.996917333733128 -1.25 -1.171540904272153
1.987688340595137 -1.25 -1.093565534959768
1.972369920397676 -1.25 -1.016554636144093
1.951056516295153 -1.25 -0.9409830056250511
1.923879532511286 -1.25 -0.8673165676349084
1.891006524188367 -1.25 -0.7960095002604519
1.852640164354092 -1.25 -0.7275014352840502
1.809016994374947 -1.25 -0.6622147477075264
1.76040596560003 -1.25 -0.6005519516698156
1.707106781186547 -1.25 -0.5428932188134521
1.649448048330183 -1.25 -0.489594034399969
1.587785252292473 -1.25 -0.4409830056250522
1.522498564715949 -1.25 -0.3973598356459077
1.453990499739546 -1.25 -0.3589934758116319
1.38268343236509 -1.25 -0.3261204674887132
1.309016994374948 -1.25 -0.2989434837048465
1.233445363855905 -1.25 -0.2776300796023233
1.156434465040231 -1.25 -0.2623116594048623
1.078459095727845 -1.25 -0.253082666266872
1.554625030724827 1.067614220794085 1.829348776112857
1.996918126174203 0.9320815446886459 1.039259815759071
1.483667889675124 1.069398055730966 0.1275039929272033
1.008298413288129 1.053069146329567 1.998556358972667
1.829028665080796 1.073622899587451 0.4456615283685527
1.869332960458585 0.9220979914151529 0.511951353942296
1.829546018893981 0.932017502067948 1.554284928995968
1.996800061910771 1.069498589734561 0.9605084490100607
1.418993911588411 0.9321333679613023 1.905449182620188
1.490158773005302 0.9344053388584498 0.1308384973575613
1.870477499669319 1.067982497931887 1.487490823036077
1.117265476320057 1.06798249793196 1.99077100686201
1.039168988720208 0.9320175020679671 1.996917333733122
1.117265476329228 0.9320175020627917 0.009228993139435593
1.677230349433375 0.932017502066773 1.732623664497064
1.73262366450136 1.067982497931953 1.677230349428856
1.678303475879449 1.068817095627172 0.268447813235926
1.978541321657773 0.9320192054701792 0.8054865213324438
1.963039323557356 0.9340022969677017 1.261150463290133
1.957667393935918 1.077455120955535 1.277261369162296
1.353893194375736 1.072700987896861 1.932455990024922
1.960228609621497 1.067982497931967 0.7291875238485181
1.67927382810217 0.9385187820184022 0.2686949157219519
1.270812476150945 0.932017502068174 1.960228609621658
1.348607515824797 0.9309664285940755 0.0652769576342912
1.554284928995963 0.932017502068033 1.829546018893991
1.990759268360965 1.071960582956097 1.114968459402844
1.909874205442523 1.077544930292457 0.5924270444984412
1.905465292993942 0.9382271504917218 1.41990084335117
1.937633082123441 0.9347323564432427 0.6585555125467037
1.77789438728626 0.9319222869648991 0.3753034759049442
1.345316320069512 1.067982497931967 0.06397915671253318
1.039168988720203 1.067982497932072 0.003082666266880252
1.210433827594419 1.07474964310289 0.02525383044612428
1.550288940427657 1.069844571643771 0.167952033921779
1.614369440326397 1.07069723605181 0.2141551733276698
1.617661684050168 1.067982497931952 1.783500111060135
1.996917531843395 0.9320713629687012 0.9607427080105768
1.038987964545554 0.9321224474918394 0.003068419355622742
1.618149443442194 0.9319642087823181 1.78311071802491
1.346565065317096 0.9333572700096738 1.93565560012282
1.306850078211657 0.8667499333975668 1.942383918184063
1.582353521676022 0.8643503194059554 1.801538233614759
1.231681718992297 0.8645452306372886 1.963314894799031
1.51709556904443 0.8646761381032873 1.845162484304632
1.194462416496779 0.9321224475008451 1.978558637199099
1.154638167770898 0.8644164175265447 1.978623589145553
1.487365855818899 0.9327446387923102 1.870603950697868
1.420943562227975 0.9356842517599154 0.09519615277832671
1.3857169270443 0.8662015378017 0.08713614174682527
1.310096502802991 0.8619897601174842 0.05936546276626387
1.077553134749844 0.8643496784211662 0.01228318757549163
1.155529902607809 0.864559083519981 0.02149797775484497
1.115980060644061 0.7952635388594519 0.02807839461577732
1.349355673370919 0.7966377336206749 0.08534465392880586
1.419924828656461 0.8033449086687789 0.1140034349212458
1.272787064796518 0.7929092518804237 0.06047850512988551
1.27067864344869 0.9271068952935724 0.04009392789344501
1.193740647978012 0.7966714095501557 0.04024896685299706
1.152577128901979 0.732366036879102 0.04863661962411514
1.382444621286424 0.734355678326051 0.115031522588815
1.453702913904723 0.7408080254753664 0.147372774152511
1.418711608056171 0.673232321267577 0.1527081533409874
1.990760125396469 0.8643741415761705 0.9999787591890165
1.484849318080574 0.6799868395369982 0.1860511589250319
1.342442746748184 0.6670921068574053 0.1214185866506635
1.522171422847742 0.7490599792276932 0.1849134333483597
1.554330756406613 0.6891765439765223 0.2279208643621475
1.987906137868597 0.8653485866518016 1.076879513817956
1.978712914789708 0.7982134073181404 1.037459330448884
1.978503092167835 0.7975706981462245 0.9605782246851144
1.963235843262571 0.7313434472493708 0.999394262108895
1.961746458684127 0.7368832037357365 1.076245004637484
1.960232159773776 0.7320536105111503 0.9215211385398697
1.941957521526832 0.6666093473625135 0.9604184339246434
1.444689355695412 0.6128072006403746 0.1923285859613104
1.93605142996811 0.6684619392714415 0.8821431599651337
1.914879757629 0.603959721915636 0.9215963826372706
1.90611636044629 0.6069354856208686 0.8436240783641348
1.8821335936206 0.5436514191960049 0.8834397331669747
1.870609652612814 0.5479384325157403 0.8058887638979413
1.84392115411376 0.4860566902036251 0.8461840061799619
1.852794189907298 0.4832716615806456 0.9242775202814362
1.809652332044376 0.4239392572191067 0.88767403754328
1.19117329725392 0.7973356581722315 1.960406130222304
1.543520421956297 0.7973683722186304 1.814571037012194
1.817851699374924 0.425595140113424 0.9656830250716752
1.796224049302873 0.4253993793504393 0.8106289619269218
1.891893115142211 0.6125127923495048 0.7668040843643592
1.917964522518167 0.6033375097120554 0.999935219145958
1.853682562726494 0.554808896129301 0.7297575845076982
1.872167732793194 0.6207001427326975 0.6910419702429098
1.831276170917596 0.5642718399285935 0.6548610451059358
1.847494400247332 0.6314198619992679 0.6180288971390944
1.803820327358739 0.5761592982681163 0.5825890024444564
1.817076775804912 0.6445728555593739 0.5460648863163027
1.771092113626244 0.5905890737112982 0.5123529496256141
1.755293711853517 0.5235198460049606 0.5500021425791015
1.72032010973753 0.5392590642482095 0.4814860371887013
1.702607612477431 0.4732182879082922 0.5216240278875908
1.665274895394047 0.4907537898176406 0.4540351559181272
1.607058884388831 0.7975718592424295 1.768441512877865
1.113623307067514 0.7977194456378802 1.972713894944446
1.735297957818124 0.6044739673461184 0.4496400534908291
1.907680015615887 0.6795341111952807 0.7290413253572694
1.85799025746436 0.7008771966811852 0.5824137614444943
1.825501427357921 0.7149600457958689 0.5128659138005818
1.734967367704299 0.4594455203018751 0.5905811156186087
1.480314911209837 0.7988653482034243 1.853722693804116
1.588171576542253 0.7587583785579139 0.2280824677261218
1.616183459251213 0.6995851160815927 0.2719417316824851
1.581208393707356 0.6303957491890951 0.275024482574325
1.649648044386658 0.7705141238486171 0.2752285525273342
1.674949968144877 0.7124772935267916 0.3204610138015991
1.705859794481493 0.7845623302565448 0.3252048007061299
1.863604144388183 0.7722623866321295 0.5501961969335292
1.828565397983501 0.7871777928730028 0.4821331354314732
1.786517930121017 0.7259579266839971 0.4465648297670118
1.951471758462048 0.7343668303810186 0.8446278273070986
1.856320009566504 0.4835611324765424 1.002633880618091
1.819302653377727 0.4283242615048691 1.043931903945353
1.567109036001333 0.730892493929424 1.778439780241293
1.149682457664609 0.7312686871434764 1.951513869240954
1.62817392910803 0.7321429210694164 1.730513586496346
1.855028170590538 0.4877817349557843 1.080989360114105
1.815320073417369 0.4340163932273456 1.122129991186907
1.585716531305273 0.6666108276591236 1.738774529015169
1.646335832037101 0.6676078571167076 1.686851843976823
1.601212594015094 0.6039646973570485 1.694045715971324
1.539526084079295 0.6032311867858734 1.742621110296977
1.553261174854187 0.5418089172789475 1.69567449580524
1.489887715333801 0.542395219088484 1.742029575456364
1.502012484151118 0.4823866750677331 1.692863559157925
1.774890248872962 0.3719228588206328 0.9288367585789385
1.644887081567541 0.4268756904410502 0.4943823798364252
1.437107815873483 0.484478433271104 1.737003576341186
1.447782852938492 0.4260647525030229 1.68563025625686
1.381512167866034 0.4298383188181709 1.727574135797906
1.390848046284235 0.3723082147042546 1.673231629818472
1.323708022777681 0.3783769356650293 1.713300695272453
1.331736025093591 0.3240911646849052 1.658102162280369
1.263261537372691 0.3317148543216524 1.695764562913229
1.270635123673126 0.2790689280372198 1.637977287458596
1.338180712473914 0.2733145460649089 1.597964929364412
1.276138987001238 0.2308135816649823 1.576280759445322
1.342799958224664 0.2274459502869718 1.53446087687797
1.279739154943785 0.1872466697389343 1.511055798656941
1.345393340727406 0.1863051530443475 1.467551212402427
1.281413405582156 0.1486371075841243 1.442705004010489
1.215375697918148 0.1518418976214945 1.483984650702854
1.216485156148688 0.115888672752707 1.414103052633409
1.281325689086147 0.1149389066729001 1.370840555682416
1.215192547625939 0.08535492163418845 1.342222950819282
1.150707019549937 0.08942953513021756 1.384901055812014
1.147056044638144 0.06158032816900016 1.312638831970667
1.211543594275088 0.0601205631050804 1.268096907522757
1.142388296298211 0.03906603306877332 1.237342546280917
1.206403892862204 0.04057568392777389 1.192100012339065
1.136649182479337 0.02255831349101045 1.161042697450679
1.199078517053072 0.02706936785402803 1.117361531516886
1.129882617402267 0.01200888243547193 1.083690246207854
1.203016760033682 0.02147626503996836 1.035714076570676
1.124091010425875 0.00774301977161751 1.005244646750436
1.18470420445342 0.01805130238656161 0.9592432568462433
1.113780669306623 0.009133880181333986 0.9276239550152279
1.175533244231498 0.02269656398982534 0.8813995188362549
1.103827807350806 0.01678775064021298 0.8499551429418792
1.041404023690361 0.006242797258015242 0.8964030462770559
1.082225114199209 0.06892521319462741 1.355441657618036
1.071727718514537 0.7323789829432809 1.960850730148147
1.031562767668861 0.01697826510143741 0.8192458564400202
1.074783700556635 0.7314755478217067 0.0396344358977655
1.093777547212226 0.03055851848073621 0.7733086116576249
1.021315520098769 0.03372292977417424 0.7433791275856277
1.083184243526185 0.04992612091996529 0.6992675509380607
1.010736004231649 0.05649362276324266 0.6688196045556021
0.9487054092271509 0.04278313097809727 0.7152110770810223
0.9381291003066409 0.06853791197537629 0.6414607826974259
1.000294625157193 0.08505261397353336 0.5964269657182821
0.9277827772965673 0.09994722858622751 0.5702446260773575
0.9899776367493771 0.1189999069876116 0.5269900758472021
0.917524379511807 0.1364556667413582 0.5025173806835304
0.9800932956610969 0.1589159207112032 0.4594620321482676
0.9078660933917504 0.1791903204226934 0.4362777162775082
0.8457164234563062 0.159781270610465 0.4801643867606592
0.8362886043345659 0.2046283314633657 0.4164055450755842
0.7746298272128513 0.1877441630078808 0.4619955943580734
0.7658026381772935 0.2350729385486837 0.3999681788648717
1.06694471042122 0.01061334724575591 1.128966883727459
1.20133645299825 0.2888371681263089 1.673580774113599
1.112293113394159 0.6644433634536815 0.06469684040201795
1.033879336133005 0.666947984320799 0.05770039507850355
1.052524391120916 0.1439302753913354 0.4858153882642712
1.2685233498515 0.04808852274586017 1.147511864120721
1.245111993620824 0.03451798842776665 0.911883055467982
1.042493595606271 0.1859458979259822 0.4207675654550107
1.571666624155506 0.4774244407724122 1.632544113658977
1.114734292676146 0.1732460686343438 0.4492605161643699
1.104533184025901 0.2185982570999042 0.3847893615759722
0.8778637309462761 0.05753742014337426 0.6887974657050016
0.8280756720200162 0.2543657596733284 0.356205308268934
0.7582166409945041 0.2871422391349 0.3416880526054418
1.848402496375715 0.4950572390976528 1.158889937868232
1.806122000328183 0.4429551551149947 1.199670632226997
1.770576332763326 0.3836840962858634 1.162378638416667
1.176479001144612 0.2086720903607606 0.4146323364064326
1.165785985891873 0.2559036954280969 0.3528248332914055
1.836685782017685 0.505609205544946 1.235657897231464
1.193245660968507 0.343612565508734 1.729254174042781
1.130711455249077 0.3028459837634689 1.704904811383738
1.758904568999289 0.3943980606078661 1.239395376222034
1.72095400504369 0.3369872332698759 1.20159214708001
0.8211283205681408 0.3086865526061469 0.2999352603154103
0.7519186599859838 0.343630668723607 0.2875149477381082
1.122120566564888 0.3597108600142603 1.758364282148225
1.071149521720217 0.6012763852794113 0.08569303588831179
1.237203444268815 0.248347782254546 0.3845704999064866
1.149051876896963 0.604351975543592 0.09377366031590428
1.247257852755948 0.2034980949105044 0.4482316886234565
1.707093293863933 0.3496011768356272 1.277489539620962
1.666886671713816 0.2943022447642117 1.239275668101959
1.659142152447833 0.6069473839954307 1.64112499866906
0.992612869631027 0.6045476099869141 0.08154323044693612
0.9553961769874251 0.6693035501949203 0.05731746751147493
1.226013611835989 0.2970744573917752 0.325601357642393
1.605695246229895 0.4458093576659338 0.429030648244705
0.9142097990658052 0.60802342203721 0.08403362302306572
0.8771943658831226 0.6738951396968358 0.06267700534137888
0.8351898280346151 0.6064017357986543 0.09561180147326787
0.7985677806447491 0.6780293665415641 0.07492704493321634
0.7569053938940277 0.6168839177527833 0.1088619186648312
1.02302469860845 0.5289369135889377 0.1182010252473219
1.583577635558243 0.3835256383436525 0.4714202948498215
1.407308358561553 0.2293913179641301 1.490165441679473
1.226704484789901 0.7316120177867114 1.936254755704677
1.678656599319656 0.2837167009485303 1.162368271838507
1.622527610237824 0.2431773649115045 1.199195565988026
1.632169413378356 0.2348148854512064 1.121875236458496
1.535900400237812 0.4015118661730883 0.4044979305717458
1.107444735750327 0.6667565028539943 1.936698671062067
1.029212190570205 0.6661244261541047 1.942164396011208
1.574191937686623 0.1967747267318476 1.158533211280737
1.582090799161739 0.1908841783572749 1.080634289844122
1.153955062985995 0.3072211683561139 0.2954751040544343
1.213382349699395 0.3518141394392135 0.2690259491569912
1.236414427336183 0.04231236501378199 0.8358579507200885
1.304990848673442 0.05703513180098951 0.8665914561661204
1.295712629114479 0.06783048044396289 0.7911602820513554
1.364501932112358 0.08555475661746192 0.8241357388739573
1.353113474013327 0.09905407679987299 0.747795087400523
1.420982465492337 0.1197302025416809 0.7811419468452603
1.408108053987823 0.13590815600077 0.7053933106593084
1.474748808719061 0.1592377508742595 0.7397454917492134
1.184167937492197 0.4024791376066608 1.780417189588101
1.185002432415925 0.6665754486177977 1.924446952797059
1.261298469105357 0.6679029566788208 1.90633032822505
1.621000090836071 0.3661918882723982 0.5388642665224442
0.9690263442557215 0.0094848900908584 0.8661327161270673
1.742801868265037 0.4089386736737707 1.314470814263343
1.688708150215276 0.3661362019073813 1.351991149455001
0.8411198636301338 0.7418629096502878 0.04704546548490718
0.9933406762259342 0.7353411921640572 1.964319121889496
1.557704302909007 0.3250080290049924 0.5169350461800671
1.701486217706814 0.6725715960053653 1.633014791789983
1.714315745164364 0.6135391381823301 1.583438958669562
0.8154894322738806 0.3672554169607979 0.2479427262289584
1.40878567902422 0.1907166965886887 1.421846895738706
1.753117762001665 0.6788892134019129 1.574196394352979
1.762556703661595 0.6195232314168461 1.52320617567961
1.112570021694079 0.4204882548962519 1.807151861487417
1.0532148393725 0.3697372825238976 1.774556058545925
0.950791655923693 0.6726763826613658 1.9436301120702
0.9150050623540793 0.7401371006741915 1.961897673418826
0.8726632134453745 0.6783787387683724 1.938267076643809
0.8372043990305765 0.7467371010464446 1.953601329864134
0.9125912748546288 0.597927827936882 1.911426180895034
1.371893899729406 0.0759933560942514 0.9110806581103438
1.800146699277367 0.6873842185572328 1.511895138508331
1.284726061324199 0.3437359557714685 0.3012521382818976
1.271451416877553 0.4000490324858241 0.2474224525977585
1.486242423976093 0.1456382591138898 0.8166033783410711
1.538523320709711 0.1878407876540931 0.7755227253073006
1.307297063859338 0.2450598750610539 0.4206607882245509
0.7469475692302479 0.4041895543530228 0.2377832459598712
1.086456463635019 0.09973004607147962 1.426660626199872
0.7953104311244559 0.6858661950361388 1.927050232173247
1.017058521475096 0.08264604671068831 1.397706840813123
1.02179319290763 0.1164768815440188 1.467880279448396
0.9515899816252686 0.1016748303589272 1.436655882486765
0.9564388452209147 0.1384772529283755 1.505846797036884
0.8863048213818983 0.1261712383426452 1.47275437772629
0.8817062354159589 0.09210444981648946 1.402159489776775
0.8167791801093872 0.119351340031113 1.436907391621629
0.8126460480888495 0.08804554579220925 1.365017218982673
0.7482930025990751 0.1178201563936678 1.397997878127658
0.7448357074878941 0.08952316394251403 1.325458315041337
0.7530955912102332 0.1520864256476862 1.469127683418128
0.8914072511770252 0.1652887861697799 1.539874804384453
0.8098738241564238 0.06232231903386287 1.290882457149043
0.7427653161586383 0.06655867556439776 1.250035220048983
0.8082584640499446 0.04229576938302115 1.214564186316949
0.7420494504199417 0.04959024374907617 1.173732003944021
0.8075895851918709 0.0285478382643708 1.138776546046285
0.7427357363436777 0.03844034492050741 1.096011084614108
0.8799287652711211 0.8092875816497611 1.974274946859297
0.8025647670270033 0.8165729522745863 1.963002516582193
1.522184255758181 0.1551700699011888 1.116558964681027
0.8852600505768331 0.3343552657867358 0.2626046977227737
1.722159753080212 0.5622356576464167 1.535581619918815
1.469459721234581 0.2360119249998439 1.442639572785698
1.339012394374519 0.1179960041877833 0.6726782197412784
1.39290527582536 0.1575062296240537 0.6314492014574919
0.8457792719719122 0.8797009966506796 1.980685534123781
1.807082326018399 0.6290513117773534 1.45936389685589
1.842282744970754 0.6980041763460955 1.44649557670836
0.8800831190490624 0.3949284699716682 0.2129114502089537
1.513689978500336 0.164095831348633 1.19335673461142
1.341936821602825 0.3942837183110791 0.2815384518785256
0.8075294112933642 0.02075097478360344 1.063454070757187
0.7444302642301572 0.0333819255340797 1.018264946600778
1.141946075298993 0.3605459396481688 0.2443877870185202
1.365923911129677 0.4972789142185728 1.783180184360089
1.218630149876063 0.6036617352563953 1.891693241796302
0.9616938235829264 0.1801325019355675 1.571270445993727
0.8968967787392548 0.209987272302479 1.604358846912644
1.011958250052414 0.05425200829793375 1.324680976417148
1.480356738208861 0.6037033214175279 1.782436161358768
1.121954316667391 0.1335832840447565 0.5158004347797072
1.466628922919927 0.277055522584893 1.509518135957482
0.7846437225799295 0.1454480478120522 0.5273874369131339
0.7142374812721141 0.1759840122422206 0.5107787465677049
0.6783467537045909 0.05467783714215668 1.053899884576814
0.6853771791773459 0.1534651832967138 1.42940806318318
0.6841504034104184 0.3824978116969067 0.27963198309816
0.6910485545210763 0.1901076494893513 1.498621484616157
0.6813677211642899 0.05243597529878508 0.9755891422519056
0.6787884023012128 0.09644066514638527 1.283555352449369
0.6966783845444805 0.2701306929256303 0.3873934442170625
0.7247872240095177 0.1360651090979597 0.5782483761576107
0.6554843362667953 0.1694204683092905 0.5624538893111825
0.6160492787339615 0.07671979336411716 1.011640604524268
0.6242927618778467 0.19404345447474 1.457469253554393
0.6310210533963625 0.2331803268209184 1.525206745757132
0.6177639361123253 0.078078675052354 0.9370979962923724
0.6671586127401579 0.1322073072086631 0.6310115811236019
0.5986813152300801 0.1680034013987871 0.616953040515195
0.5555417675855925 0.1047204097119013 0.9694822207125973
0.5654148421306229 0.2395440461282378 1.48253754546215
0.5733836056087696 0.2810385929641988 1.548719370197305
0.5532258734729316 0.1066348560044597 1.047870652385387
0.4941698625913722 0.1373814398632139 1.005009171259478
0.5091068419522133 0.2896861073572389 1.504458205702473
0.5183276859114276 0.333205235724125 1.568662047419062
0.5841706230830459 0.3268784584340427 1.611549932199102
0.530664224847184 0.3812950747230193 1.63002233738155
0.5025667509269997 0.2504620063307301 1.436752743280365
0.5977093120444655 0.3767806974814438 1.670641411898003
0.5455484544825646 0.4331144877356676 1.687105966181069
0.4930959152555104 0.1420787521777512 1.083781748635769
0.4359273292070195 0.1753202654639693 1.041537423006917
0.4664534076303675 0.3897878219292349 1.585635664474839
0.4386373279640267 0.1732898184876699 0.9622875852207455
0.6139161053823493 0.4304372901833521 1.725629069086392
0.5630527928933435 0.4885254297734596 1.739912766624058
0.4363736043915158 0.1827112146680321 1.119851272600606
0.3807412109395045 0.2186000682935194 1.077024015089035
1.644057633229421 1.136954859837474 0.2473824799768377
0.3831217657247572 0.2283792947801998 1.155121666293129
0.3295954748820236 0.2665321426091278 1.112172522819912
0.3337650558262308 0.2787684226022021 1.189620702788644
0.2823021520494763 0.3191669081476131 1.146205677338146
0.2803975078045915 0.309083810449056 1.069333053030723
0.288126169114502 0.3336487981679011 1.22183715810775
0.2392292786947291 0.3760136937734884 1.178518904451187
0.2473073679941694 0.3925108247194148 1.25379263906002
1.513384172269473 1.137328960973491 0.1529005677365088
0.495559044215063 0.4925672269307996 1.698606686871863
0.7689581294339516 0.8874552329798531 1.966412608289918
0.5150180012990568 0.5498506840880981 1.749772001557864
0.4495530232019067 0.5556703278024837 1.706809216223648
0.4701082237641103 0.6140345250194374 1.755145918085109
0.4063109781103316 0.6211359057364638 1.709926294319037
0.4286006644046965 0.6806807799275478 1.75600134588079
0.3660392523841287 0.6884747859662401 1.707845895307408
0.2007912324193935 0.4368196753830816 1.209983970308856
1.581755407331282 1.135590295219384 1.801982492254747
0.3907515272674653 0.7493780770055058 1.752333004850655
0.3306711320237313 0.7584244510164124 1.702595275124225
0.3567944348969148 0.8197023844538842 1.744163537704452
0.3085326207745009 0.6987595629483101 1.656602667183074
0.2747024507604661 0.7691620108308438 1.648580980158582
0.2544694250902758 0.7102413470262605 1.600186708368005
0.2231909483144164 0.7815244792157189 1.590623521405456
0.205589134834594 0.723465415619849 1.540777219332368
0.2395259959393615 0.6531335101432291 1.548965324371606
0.4188082591053063 0.8113212263278977 1.791591106999938
0.386741284171875 0.8822151272434234 1.781050876198571
0.1926178989014719 0.6671562656835142 1.487184966262284
0.4505989964912251 0.874307060881926 1.826050738392873
0.4203268339098836 0.9455768215412064 1.813029604726361
0.3569269092029463 0.9533702157331051 1.764383845402261
0.3930926919918513 1.017217222443354 1.79458611033521
0.4576284917883652 1.009151282335004 1.840088924526363
0.4328563981797573 1.080801508522495 1.819645808343367
0.498416014555654 1.072546098364246 1.862061812840524
0.2291213627600416 0.5979600170615855 1.49407487161962
0.7264050699534691 0.8247840839965042 1.945751128485655
0.19483736699063 0.4222578284859456 1.133892186701255
0.1588989898818152 0.4848016892604076 1.164680877424307
0.176454577735242 0.7954355492415001 1.529080639366661
0.1553152427878813 0.4719336271021102 1.087484665787616
0.1220258457812957 0.5360917086201649 1.118112157346281
0.1211060387531632 0.5247206437739593 1.040680934468175
0.09055341765202274 0.5903143580131637 1.071165923063061
0.09234772461818941 0.5803302263766081 0.9933195732836101
0.06458515857032709 0.647241753819636 1.023678981921811
0.06923175028780904 0.6384301291579266 0.9457995034436852
0.09981728591415973 0.5727621379996676 0.9155080445578686
0.07953821470712041 0.6320289423309361 0.8682904614944115
0.722023579629455 0.6881776301112772 0.09143194016355682
0.1129278204662278 0.5676304461906502 0.838260959456577
0.09543258049550318 0.6281746673968779 0.7914245805336754
0.1315944542905025 0.5649756310869977 0.7620386446650762
0.1168361748635591 0.6267653962702829 0.7158915901471916
0.1556508498917332 0.5647808415570151 0.6874959250895638
0.1436103932559092 0.627851813505824 0.6420858081190444
0.1851015593795029 0.5671467884421689 0.6145410155174049
0.1754949694819137 0.6313318781292089 0.5707270442170471
0.2196117598046041 0.5719593595037205 0.5441761254077756
0.2125775202779642 0.6374695264027724 0.5014646510609604
0.2003550281944597 0.5028797048093674 0.6631924419261128
0.2590195564086809 0.5792220871954235 0.4766512345375827
0.2543447315930245 0.6459414570487406 0.4355172554806015
0.2100623438630315 0.7051560380044742 0.4623518460074344
0.08069772662134944 0.6996860694047122 0.7456481310246499
0.2541123855863034 0.7146759566592431 0.398134685368955
0.04437282036954837 0.7063806960882517 0.9762429395351848
0.04264875463570938 0.7161875919311149 1.054121252993465
0.3007841964107104 0.6564017719062599 0.3730729566673439
0.3027858333398137 0.7260259671073976 0.3375570703004633
0.258925934433704 0.7854293368442891 0.3637856808763578
0.309815623813984 0.7976142884971587 0.3052442510866078
0.3516092686670476 0.6687859050283718 0.3145171899940566
0.351397214930532 0.6000298074773496 0.3524366654191087
0.6829463143573486 0.6344099267352097 0.1248880878706677
0.6490786368839186 0.7007378869364088 0.1127027642365463
0.196526878434885 0.8541476649329709 1.577198440120817
0.1523021567337879 0.8685996777344018 1.513947781229095
0.1749233907058181 0.9277397918209762 1.560381165912578
0.1332809518508787 0.9425061979310022 1.495472051985914
0.02536964709927558 0.7762762699432634 1.006585424368225
0.1585138319416167 1.001846614906141 1.540275502849987
0.1195083708463318 1.016698924275439 1.473767492466888
0.1473994896018849 1.076010712269787 1.517005552474162
0.1110694245187591 1.090719904612691 1.448968073343366
0.1416489665967362 1.149774308468597 1.490714947783642
0.1080162019928441 1.164112246887451 1.421226868224573
0.0800152034304169 1.105163202487972 1.377582672964871
0.07992955229430587 1.17764188377008 1.349161470367595
0.05493948283421812 1.11775829250877 1.30494852588554
0.05756238141871284 1.19027970787845 1.274963575501418
0.03553968997432089 1.131017345061849 1.229457546570417
0.04100044886271415 1.202211787528686 1.198570526269479
0.2678744425971109 0.857487700429941 0.3339051023549552
0.3209597696126506 0.870205075456803 0.2774644347311882
0.02208021388303338 1.142398110730997 1.152956431643749
0.03052269658688345 1.212908207492321 1.12158887017009
0.2800049611092191 0.9290235332083725 0.309659877209473
0.3422273008281295 0.9441959070753908 0.2488535565969752
0.2300375365345615 0.9180848628726107 0.3671906170388793
0.2459718334095126 0.9913536215875864 0.3432148265006757
0.1969821235162885 0.9792217444262462 0.4044073924712444
0.2124968310568106 1.053533219419346 0.3860187679390885
0.1694581388771158 1.040094816213943 0.4444888636262043
0.188578747942645 1.113786413455969 0.4267215302991909
0.2346571130320453 1.126959432458474 0.3690233222397371
0.1460440754536793 1.101652174164687 0.4896803801343412
0.1685274325258265 1.17399088535725 0.4723822014464389
0.1286366332322851 1.160565272486077 0.5363787361145904
0.1539770967914198 1.233009624196186 0.5204671416070871
0.01442135001257216 1.151435532035435 1.075511617159903
0.02597694161704367 1.222092613468998 1.044203538102985
0.01290144926839276 1.160099067291053 0.9978228927229622
0.02750381960257786 1.230445165760433 0.9661443551225031
0.1102394822319178 1.083469501899986 0.5512694981688422
0.1133062846797716 0.8836576820660694 1.447480413280145
0.02663679437809752 0.7868370089514398 1.084413323525883
0.1159746106891862 1.219358296045854 0.5872276062892245
0.1444688694532419 1.29090426744485 0.5716996476212501
0.1851813790802095 1.303746141123553 0.5062299150870706
0.1778545916601179 1.360789531737331 0.5596503192525217
0.04529382673819671 1.284295643507051 1.087818618861351
0.2214680612693528 1.3725136047065 0.4949043311560974
0.2166377253215638 1.428501090221418 0.5497441146529203
0.2624621550028918 1.438996626316667 0.486852955499492
0.1118768405992805 1.235510507083045 1.394679686314828
0.1757025445824366 1.415550592262425 0.6154854875788458
0.1806202489773644 1.134716568968202 1.557196796167673
0.01745337815230286 1.167848731564735 0.9198193339527042
0.2696328668419152 1.381756402308882 0.4335850460143029
0.3128929838508625 1.446972417204683 0.4272002037213775
0.3222518682669342 1.388452874153295 0.3756909142945436
0.3676189292391048 1.452379232578445 0.3711540639591913
0.3602969550878174 1.509510435237906 0.4245183489339022
0.4169866326372251 1.51343236949984 0.3703313447327256
0.4261848263878211 1.454810231390223 0.3189098444734381
0.477338340473904 1.514368680098859 0.3201105600211271
0.4698469910926625 1.571404188871204 0.3735536414927946
0.5318239421019237 1.570664378310697 0.3253494636937706
0.4882291792293739 1.454250408381533 0.2707900209864305
0.2167672871177719 1.481967177138255 0.6072479692827449
0.1783136708073938 1.467631169771751 0.6741892182939858
0.2218559469434035 1.532581847801257 0.6670609543996801
0.1866086044889339 1.517725237395776 0.7347547997191132
0.4387514978221422 1.393288631392197 0.2717664033973965
0.5024522840145583 1.391420451766207 0.2258964537887658
0.4546090795734453 1.329247309549535 0.2291920128393401
0.5199198631846687 1.3262666260858 0.185706962489571
0.5692722439706907 1.387331865783382 0.1848634311143197
0.5881458486783946 1.321076449185107 0.1471893106803577
0.6387989336941839 1.381048110105793 0.1489206103515696
0.6588659134114964 1.313708815042814 0.1138768063458326
0.710603201987971 1.372607971007763 0.1182898473750781
0.6093752257575209 1.252757228169432 0.1148299206615048
0.6812249157974136 1.244515133310516 0.08425178390904053
0.6895516250034351 0.7596981893677608 0.08028436662799965
0.6328293375785816 1.1827959008725 0.08798499832446394
0.6915405583318585 1.43878383775101 0.1560085802721252
0.7642677447811304 1.42909114296883 0.1280418043993574
0.7460451766542869 1.49392726024819 0.1684094701818901
0.8195282991721121 1.48280969040649 0.1430724837829757
0.8016172354938615 1.547546596959955 0.1870811830788547
0.8758072223731569 1.534813494633948 0.1642065566524504
0.8938886334567808 1.469508428702816 0.1234714988847521
0.9509360158759631 1.517610534080161 0.1457915591197154
0.9691971763964986 1.451191107683262 0.1081043948950065
1.026190824779077 1.498771154481608 0.1336620889315324
1.008263344753695 1.564722681370403 0.1747606345554619
0.5258737257891686 1.625936861550194 0.3808010647169614
1.083167056010265 1.543142171200821 0.1644882869415634
1.101224089820149 1.476683331296368 0.126772260344256
1.157990224883194 1.520623630879127 0.1609588068446265
1.064800523417376 1.60628407142495 0.207396368352239
1.175572670647775 1.451483400883721 0.1251646005973026
1.231749444831292 1.492781211823299 0.1612754492121096
1.248777653101327 1.423326908982225 0.1288490329173992
1.304212631593002 1.463210512356401 0.1675994377574095
1.286357051961405 1.531189038814652 0.2026055907926495
1.357908568915375 1.500083272322015 0.2114455142219698
1.338424904958642 1.569603254358301 0.2509868383478381
1.410018445293767 1.534953010369384 0.2612780284737599
1.389528276598632 1.598405758420098 0.2998726758511946
1.458770354404939 1.563905867613037 0.3133123458290841
1.437455073126656 1.626799758048976 0.3552092414546433
1.505313636529863 1.590461760076423 0.3707043313160188
1.484635731478321 1.650624424805069 0.4153496210370282
0.2318759019365846 1.580107819559006 0.7289644162462052
1.548876588170344 1.613221355007979 0.4319383301782628
1.524513727733301 1.67228381364132 0.477582711488987
1.449638921573444 1.710933925077382 0.4592618060647676
1.49578482389302 1.728323898570375 0.5269865676657619
1.427211178219108 1.764245579630286 0.5168651293684037
1.466749721390511 1.777544844884998 0.5786109733575806
1.396011895601439 1.810148131825536 0.567756338344044
1.433784713089631 1.823441082966983 0.6342465234999017
1.361738335692944 1.852613555105476 0.622911811189345
1.398151832554076 1.863536648866126 0.6905172471705547
1.324969389831191 1.890147874640823 0.680576054521316
1.360325342609055 1.898665815107079 0.7498692337364381
1.286056386704246 1.922314733738578 0.7401783774308879
1.319668260562352 1.928372785945981 0.8104316125933996
1.24389222907369 1.949230516422194 0.8013092672258704
1.277596020220628 1.952173641145102 0.8723058080171705
1.202705629769975 1.969800087273254 0.8643599676188953
1.235444031289971 1.969760453413254 0.9357289246577695
1.158769734158031 1.984666024430005 0.927715894910443
1.190891838916694 1.981610820842474 0.9992913110923602
1.113682688401341 1.99348013385137 0.9914285356847079
1.145345153927953 1.98737384933008 1.062989426801336
1.22564229604377 1.970870940856652 1.080592620234202
1.172386252694368 1.975375549772375 1.137570043207924
1.098139207549435 1.987107971498357 1.126437923685766
1.128255360134853 1.971931129924156 1.197231947921814
1.051286122001303 1.980760578642281 1.188357163578468
1.081206096413855 1.962525321418503 1.258748092811196
1.00345917530261 1.968381494167433 1.249450026779464
1.205597571010306 1.956997608865818 1.204658778017875
0.4745505762721054 1.144380013346286 1.838485130965451
1.033199760643182 1.947186588420133 1.318959782120355
1.402487791743557 1.898732212802579 0.8259770498802655
0.9555204839951542 1.950228625505541 1.30836201440162
0.9851726675246009 1.926067651887107 1.377066114017109
0.9074426991751036 1.925964934276545 1.366090271045603
0.937366688142106 1.898982342944662 1.433483350683089
1.008727284544769 1.895362659209239 1.445252224023906
0.8598945185092892 1.896168157195242 1.421014356151356
0.8901314778879905 1.866414369581369 1.487088336990163
1.534622295366752 1.741226564305424 0.5940909194600819
0.9306741687425696 1.968604421823845 1.238745477745154
0.8130451962512038 1.860879263137694 1.473217492972048
0.8437403655111807 1.828459030736877 1.537809037688969
0.7673482808901129 1.821006878534073 1.521364443546884
0.739224530194901 1.849004540127773 1.459551352071081
0.7984405349279047 1.785777690457368 1.584745417441929
1.08113505557912 1.993482543576337 0.9199404074125811
0.7225937319287514 1.774728957655042 1.5681908170725
0.7545366622004994 1.737693330150557 1.628932667658239
0.8312046858105846 1.745626203042372 1.644631450709871
0.6795498985416533 1.724399306146451 1.610374784644546
1.25246439043697 1.910566132881725 0.6726912020581947
0.78795531204988 1.69580127226294 1.686219818884161
0.8652464955444243 1.701941242630013 1.699371135329429
0.8224808150726712 1.648947190770244 1.739834091248941
0.9001267003017525 1.652909248384957 1.750822773616234
0.857878853661354 1.598458682226202 1.788447072054598
0.9358983087439318 1.600488987513598 1.797059564306837
0.9786790472806024 1.653652042136785 1.756494827996562
1.014303193946695 1.598649372432024 1.800883479371167
1.056815436105296 1.649232858058152 1.75846470071969
1.092609557704243 1.592951191944103 1.799895214258651
1.134891130630808 1.641617102514236 1.755070775913343
0.1986428918863143 1.562279257860238 0.795870576702399
0.2467545063492217 1.624026799489835 0.7921255671967599
0.2115771601190753 1.601134315303867 0.8695126039870178
0.2656006754197581 1.663745459830162 0.8582269538631151
0.2376129895302461 1.642929114649663 0.9264595362892529
0.290719610013948 1.700581665497386 0.921854889147546
0.2641937105255341 1.677144146180852 0.9919433466734698
0.3215213526886669 1.719746290217447 0.8529217797877376
0.3481490000570155 1.753911503478174 0.9180993357987234
0.3809196966713498 1.771540164882476 0.8534894133394183
0.4096327805642356 1.802727570247808 0.9157682115841416
0.4445036181434365 1.818183532511696 0.8516777937362399
1.170334056571461 1.583429617881093 1.794100869002819
1.212144449558331 1.630204408508474 1.746884955008519
0.7807264012097849 1.592570988561984 1.775099162938692
0.8166823293871195 1.540243872616926 1.82129847786352
0.5424376425746574 1.135369967218781 1.878812642741642
0.4748136159774533 1.846587792682791 0.913580260832366
0.5115627600354145 1.858813716338641 0.8455070770410837
0.4415765238479674 1.829309872800755 0.979792175835167
1.246996938646062 1.57014342184758 1.783536209005943
1.288098549328257 1.615065220512963 1.733957764718308
1.205049983727884 1.525979648052849 1.825408937440949
0.5431971445752612 1.885127668274914 0.9112297227106977
0.581247059239933 1.894389058722396 0.8427925375738738
1.322125004817787 1.553174612445864 1.768266444286427
1.36228460576627 1.596292984667264 1.716368997696986
1.327580048670627 1.656753281338545 1.679239603648082
1.400375752506579 1.635607703615927 1.660077346913889
1.36422204102839 1.693633967786043 1.621461361278804
1.43632507715395 1.671043611558339 1.599433814889801
1.471025664327 1.610833000926148 1.63641014175205
1.505412801516729 1.644122807424659 1.574163486315863
1.5387677968774 1.582142416884583 1.608965900122206
1.571783072628249 1.613982483715306 1.544141183468576
1.536714851084611 1.673686745080809 1.508019033233647
1.60094519252727 1.641007620163457 1.477466340667846
1.564268797158544 1.699123366102524 1.439120989617585
1.626792832268096 1.6643780623452 1.407102610765119
1.588297366740031 1.720374407907777 1.367378443458874
1.649066856533499 1.683527911106498 1.333918868122348
1.685568991434987 1.625520660611513 1.372450078709818
1.705642476881777 1.64262813265922 1.298492509009983
1.740137442835312 1.582684840436143 1.335670884109885
1.758027774519202 1.597994004405215 1.260378692970223
1.72122468290767 1.655929053741101 1.222692687852644
1.771277800440739 1.609266149801667 1.184188254927256
1.60323681469773 1.549904963172746 1.577676273419047
1.732219428860382 1.66534132436093 1.145518487131426
1.779951578913818 1.616710792919988 1.106505081784122
1.738563599403115 1.670807986223382 1.067382900320822
1.783982587776388 1.620146245456017 1.028105805632366
1.688556241153457 1.717374750383491 1.106130911052561
1.822925375846419 1.564183287081892 1.067015254722351
1.824440104710837 1.565832923280651 0.9885275688689427
1.790118916819448 1.536320099177667 1.296770700208293
0.7398851100532694 1.533432432328152 1.804854076319721
0.7764359130993705 1.479513376010725 1.848578824432407
0.8539499386093224 1.484687743374054 1.862407775353832
0.8146290500839525 1.42158094268735 1.887641323784594
0.8922991957888941 1.426245519206992 1.898173309628071
1.357783511068124 1.792664464058294 0.5063665260267061
1.570804518116014 1.552256318149265 0.392385680581372
1.611924336885304 1.571976119287693 0.4537473799677736
0.552378776048269 1.866244680699229 0.778064439468917
0.6220550636812203 1.898210072047984 0.7755533658471383
0.858988877103621 1.595093807820215 0.2088115122718615
0.6143506662597332 1.918242014074099 0.9099655900511856
1.860875565315345 1.508083031142299 1.027292755599954
1.85978865129888 1.50807484984895 0.948780647713773
1.820764059053163 1.564166023220033 0.9102054700403829
1.853507498767425 1.504753630634184 0.8705831467335747
1.632382766201302 1.508648411483825 0.4157322270511823
1.671377578260534 1.526643372298252 0.4785607362085722
1.692658351630302 1.720731517691923 1.027757653400289
1.640557746904602 1.76504525326504 1.06626864520368
1.523780917806491 1.75273109733546 1.398810036541139
0.5943696659478451 1.867407030299054 0.7117829361670025
0.6653561766935465 1.896635384611346 0.7100715629923422
1.568645946247612 1.516568978209886 1.640154886388718
1.631253194883438 1.482493571605284 1.607222658757913
1.68909257036087 1.460443980512884 0.4404083897314932
1.726471541967812 1.476296268644541 0.50464057171969
0.6375077992329128 1.862245948428094 0.6462609311902761
0.7108566425828535 1.889718889074823 0.6467346361656683
0.6838817811804605 1.85243190063051 0.5835517721038816
0.7583410143623556 1.877221566431665 0.5851708085877272
0.7338405097150051 1.83882410738668 0.5250965965607628
0.8074507931780937 1.859502266840418 0.5265228028210469
0.8341775948792893 1.896953630659112 0.5901498878767755
0.8838405964351371 1.87652286812796 0.5328654855267158
0.5208316974792875 1.206352264240399 1.853121609679581
0.4552374777331546 1.214401116146303 1.810719406285975
0.2159101734632548 1.620645904955815 0.9986566522584748
0.2427812225745987 1.65017649837535 1.062371821159474
1.889898087672133 1.447098027363911 0.9095304057443643
1.880947648525372 1.442339092869357 0.8318709796699804
0.561545091525248 1.832740641148815 0.6619166998897206
1.812489691785385 1.558758247421377 0.8337179454027556
0.8534307257963324 1.361829918205865 1.92065007367107
0.9314933914019109 1.36527793281501 1.928374319106674
0.2690861729618844 1.593268726877418 0.6626616014241142
1.317349723458518 1.631752628068195 0.2927675276475694
0.5023561009419764 1.276144258198956 1.822249900209222
0.4383710570275383 1.283435849074408 1.777326861670883
0.9110026969816194 1.911236494091636 0.5978463827204359
0.9609824015116579 1.888045945070526 0.5419039113330049
0.9340765220753749 1.850807502946411 0.4786741057760373
0.4736596912419015 1.26308155880708 0.1914494618194441
0.4871248929727097 1.34431516031586 1.786388068938237
0.424798574400866 1.350637684105795 1.739051104101502
0.4752320876998612 1.410444187948369 1.745757471836225
0.4150595023443113 1.413928004694573 1.697501412996336
0.1772461971203318 1.208010805298763 1.528968510145929
0.7034966172383297 1.175148590543402 0.06116630054010841
0.1934897489599896 1.587465672868223 1.066522914614931
0.225265672672111 1.618329786933981 1.132117359381654
0.2760411960299047 1.678018799086597 1.127177664074153
0.2612896714274248 1.644677070248531 1.196719408183251
0.3143231354211765 1.702324220242483 1.191279708913783
0.3017758748485424 1.667056884413146 1.259842613929101
0.3569402727747868 1.722436565302188 1.254085805064768
0.346458157526629 1.684870712689294 1.322234645928972
0.2933750862972867 1.627250505893272 1.327472188424097
0.3401624951133485 1.643192571981457 1.388481379853444
0.2891888490122158 1.583611166314562 1.39261369586959
0.3952730464698444 1.698762630872622 1.382146696139203
0.3908346648402462 1.655181382282241 1.446827652177478
0.4629797134296213 1.469326826766581 1.700957588937505
0.6160897841994779 0.7716080595276223 0.1053212488656845
1.431657021264663 1.460676403789338 0.2244682682284099
0.1792960614787148 1.554821083890154 1.136450028093091
1.118453791713468 1.407253878954836 0.09439910705380694
1.011363679310598 1.859447426744048 0.4889021742801478
1.642635957411762 1.766074263800539 0.9877832662331368
1.588520215234965 1.808058588400315 1.026177738104737
1.741342531393097 1.409939598209265 0.4686236955154086
1.098801069206667 1.695906067397435 1.711303798726716
0.03507377251530686 1.237579978762685 0.8883168356318628
1.646445802515576 1.439016667871492 0.3760030530996127
0.6576346623616687 0.8312918903656722 0.07570375456382872
0.5852939822141232 0.8438147688400495 0.1035486112567549
1.594862827736685 1.447807241285914 1.667537932127467
1.655577305731305 1.412295717679622 1.632637840626948
1.914594951081803 1.383334172205208 0.8712716508479121
1.902838346344985 1.377213760893127 0.7936200131749327
0.5847617129071676 1.189423714577909 1.889772904334425
1.706387866569519 1.538870464990086 0.5410503252809381
0.03663953697686206 1.055880437401215 1.262324217333616
0.1284748019283175 0.5493492327103675 1.193281440048909
0.4039001363968285 0.6132023186209878 0.2964003224189904
0.4059333809322333 0.5460005993690864 0.3359447339745251
0.5881405237361303 0.2077498202474178 0.5497651451812596
0.5327784366491901 0.2088732908912049 0.6052563605645898
0.5234091998609096 0.2510305925271769 0.539667472480393
0.4693703228559828 0.2545887759580905 0.5965223019714992
0.005891573708678322 1.096996375976069 0.9516250082780306
0.01348558593493765 1.104341250571741 0.8738960180208738
1.049932272993622 1.540528217621275 1.839842850817258
1.022698173254239 1.992862611472208 1.117083848892613
0.840912401297734 1.918803126743385 1.361236695569161
0.4844112815864057 0.803898459511831 1.834093795242954
0.1503980353855358 0.5082297149695283 0.8093734318509322
0.648416794546205 1.760178057786835 1.546368529567974
0.2684023518027802 0.515022252114673 0.5208742699370308
0.1563147440546095 0.9642406302053801 0.464354168902387
0.04811503717121512 1.299453916688409 0.9348665268819916
0.8607505919607731 1.928353063225701 0.6553694842876174
1.920623992941755 1.387099040402802 0.9489529967656334
0.7809957431668659 1.818500891112171 0.4688753190280566
0.785444838799168 1.606038043265253 0.2340470165099507
0.577568135703209 1.906125812327023 0.977924396691599
0.6499999722284164 1.936473720979334 0.9772634550775526
0.6142445939863599 1.92166396655342 1.041572821509592
1.468906686900412 1.831895303929772 0.7032227733136009
1.308679071626947 1.949473104108495 0.9432720940444111
0.06963732334962047 1.270022192517387 1.248018760266324
0.9122306165643403 1.401983121796867 0.08856919893950854
0.3631407987956646 0.8100625701792425 0.2527824074645587
1.111461243656551 1.939217939933537 1.324724579404668
0.4477844425859566 0.3028576591773924 1.457220444405401
0.6878926085042405 1.945678582003746 0.9090000235544122
0.7245700248173335 1.961040436705293 0.9767705405104868
1.164782864615192 1.963662983550909 0.7897614172827173
1.769957406193479 1.519191927231308 1.370951931314086
1.817572953001127 1.471012969914879 1.331241979062109
1.546140378738608 1.7717760149246 1.325718389868233
1.480021979372153 1.801817766085632 1.355903314551983
0.1390555938540312 0.6895485402486412 0.5970178407618822
0.4654470932692152 1.624828321753307 0.4309281607383695
0.6672939866488998 0.3759448124416694 1.707009074596327
0.6846103849588239 0.4314440080223372 1.759785150361913
0.73794587965652 0.3777003737879875 1.737611559852064
0.7633745226852315 1.967306076312575 0.9087457496095199
1.320387181843376 1.392387650608602 0.1378028152676902
0.6088358782119666 1.709603376694612 1.586049210910995
1.794918304216911 1.452541300955338 1.404117879523489
1.840044628100664 1.402936641358527 1.363272743059436
1.814866066586611 1.383144360398541 1.434964013017695
1.860140391890335 1.420059183371194 1.289324711534058
1.501098220143862 1.818000300267264 1.282446601203342
0.9845253778242755 1.819369979365474 0.4269438308654717
1.061835553604493 1.825617462522433 0.4391683230340445
0.4609260473906172 0.2981056696968597 0.5344426751662014
0.3948994231910775 1.219794359048729 1.76520829299993
0.5397093030166082 0.1698821877918953 0.6852987255739605
1.857437684130237 1.332326217726486 1.392886628488402
0.8127673690713426 0.9509427211967756 1.981089866073417
0.8888651501906687 1.296339599057323 1.948594690681116
0.9654787770393656 1.317632844055134 1.947585173766849
0.5286808788126083 0.6071103512174643 1.789617635240425
0.4096823273791698 0.3031771258907512 0.5926145222155652
0.4166755319117705 0.263572430568994 0.6573529514040356
0.4605974125088199 0.5608108943762351 0.2815587859057519
1.264851893912129 1.352509958109345 0.1024532303412229
0.7365919221134078 0.9589464246255182 1.963810556309207
0.7763748022899186 1.022255861679806 1.97442108329511
0.8430062473146941 1.653139642181559 0.2592155715535519
0.004973844376504499 1.033145355909014 0.9060620683281135
0.0156527879320626 1.040302580558706 0.8284299906907149
0.008163573628535481 1.069621182970025 1.106833488216648
0.166773961977796 1.552798951834642 0.9878472878606664
1.77673126688301 1.424355153410149 0.5345848704429956
1.790079519228482 1.357390323235593 0.5019573209520597
1.751760072375117 1.339818315435218 0.4348625777058032
1.830640658269703 1.314242201118201 1.459660674700004
0.4640560717316069 0.4946476410848204 0.3236989582359739
1.933689717151058 1.317011189373763 0.8334844815093538
1.919110427823288 1.309874433278071 0.7566610243567902
0.3640279235041306 1.356753671350815 1.684299887399703
0.3596351503645573 1.428926962315067 1.637145603728493
0.1407763129434688 1.404460283250825 0.6867165263317543
0.6806007445357725 0.05843716622781259 0.8930254905700179
0.01020403896686606 0.9690259970408653 0.8609152536646011
0.02387283441967869 0.9761520560225004 0.7841133811831452
0.6583634144106648 1.111624301277358 0.06682024306610546
0.5865490159564299 1.120071541375967 0.09742528910621306
0.7322536521877754 1.102281802608788 0.04195494568975922
0.7804957478484749 1.16412532566742 0.03829278844236428
0.8077636442344653 1.092101711634863 0.02298287720433723
0.7602316296270577 1.029958116313812 0.0296322141395915
0.9212374725124755 1.831377739911947 1.550097734809625
1.433165044536466 1.845974220016112 1.310959263023072
1.452774185561613 1.859425917144722 1.237450268117287
1.411488713407743 1.827098906872625 1.382863470427971
0.7698626105526808 1.663087139684803 0.2877133813112872
0.5247996753183446 1.000769754908262 1.879877297638614
0.7381012524837743 1.414127690001146 1.871726621380664
1.009977128799473 1.366669016798661 1.930297957119557
1.051004798274875 1.312556553476108 1.948528814233957
1.588697874558279 1.806657590361557 0.9476708073571638
1.64091279129631 1.76224541992572 0.9093759758395462
0.6594617223859455 1.811868514901749 0.5257604023377191
1.618884627172009 1.379272615390785 1.687847440545356
1.555721167653167 1.411177196565571 1.722569925229855
1.688076286498007 1.339069571564389 1.641547230995703
0.332548877385174 1.025482865350658 1.744217456455927
0.7567074382172592 0.4352861128875261 1.788610775404135
0.9425713794627031 1.937368833225783 0.6564281384628291
0.3608664862812916 0.3134797279177329 0.6533037818757355
0.3693842044918647 0.2761547858596455 0.7200503180538578
0.4410527306757295 0.193584273753283 1.19305860917587
0.8010015410137876 1.97972701713765 0.9768789011577073
0.7609356608992657 1.969927657969939 1.045700985495697
0.841483529782782 1.983098067394593 0.9083991345298016
0.1569625587082142 1.498909802556734 0.7990600052428607
1.335472096304997 1.320017109165231 0.1139709246067262
0.3149903570299393 0.3294562121872048 0.7151617693080882
0.3282549256886353 0.2919082247530503 0.7823659195667128
0.4092898960421305 1.265391416467442 0.2380098628279445
0.4307772675267827 1.198166671688726 0.2020554837161065
0.2097783513403463 0.4588340100497341 1.287557154859286
0.2540829856231277 0.4206993651729571 1.328661805131168
0.460640892534385 0.629627534653988 0.2437487255498921
0.8146150215663339 1.296209027720428 1.936959242266209
0.02680728681340572 1.1103340154833 0.7982022100521262
1.532745383008619 1.846161369719539 0.986097004734485
1.03492568416841 1.783000627453204 0.3789603764708273
1.112086488415522 1.786764866742988 0.3930093381496175
1.138730089818087 1.827124234950171 0.4553721801659775
0.1847959302383685 0.6132036014679458 1.431081048906937
0.3875219946061167 0.5640424830305771 1.659402560130445
0.6385117591088456 1.670802295785573 1.64757280028289
0.364053775931875 1.741763072341491 0.7870212578588962
0.7036782726199422 0.4905279988625922 1.807856245838048
0.04687480151623269 0.7275561502329144 1.131630941420962
0.03381201602020489 0.798933986531936 1.161410154083068
0.05707863064037144 0.7403311247808906 1.208497881158072
0.150943556620646 0.6835971472440274 1.423074923298326
0.1552331131149169 0.4649503707601061 1.009528959688092
0.2445895539794625 1.565799877916715 1.330492898853339
0.2426667413141814 1.520386178131416 1.394518137603453
0.2004026876608017 1.500898130732101 1.331278131981297
0.2008833281931488 1.453907861584297 1.394182949951304
1.29003299374764 1.712255937137797 1.639196638406164
0.03021590871738333 0.7653765025625712 0.9331372245163402
0.218965594934027 1.192454134403502 1.594093144426226
1.700715324304947 1.135576714547258 0.299559432387883
1.666229868976463 1.203302949224045 0.2825004024249141
1.739161139152302 0.7383609590398318 1.620633404364053
0.5335106877905722 1.402974323512636 1.787400416677505
1.86838576676076 1.43223369719713 0.7569358292659578
1.036242252552007 1.893336025487717 0.5520745098838806
0.7205475766190865 0.3255901268097771 1.68343080557587
1.327715010409804 0.4520837862972646 0.2303307887710719
1.397166665225541 0.4480993490360689 0.2667440341195907
0.4111364515718773 0.4813183093891015 0.3801540311031617
0.4709955217428774 0.4315461652763971 0.3699091337180483
1.515613207317187 1.134675557325346 1.846171090677997
0.8123510372635853 0.3853064196403552 1.76611987903238
1.637650405938475 0.2309941151007715 1.045076699045655
1.326048515936835 1.747744869650805 1.578420240972158
1.250850896347929 1.763774682115292 1.594745376410045
0.3715441403475048 1.755658255835072 1.184455503731226
0.4161241322175524 1.77348884743038 1.246584618178253
0.01258894726853221 0.8457536685750511 1.03503544185078
0.04698762897904785 0.8124415032574241 1.237884911208526
0.8566413490219351 1.15354969381095 0.02231355296275439
1.876333661605213 0.559270076468996 1.194413086087217
1.362992117714769 1.868530404631737 1.33747838257758
0.5790587362680624 1.742415828592364 1.521178654535345
0.2172355851372719 1.266635242626569 1.562303759736748
1.593180357256307 0.3099308061292395 0.5853416208059483
0.2892702368104161 1.536761689854836 1.454697802964407
1.285918332122817 1.796591927609978 1.53262745725575
1.209949703667934 1.81055184110014 1.546742018523288
0.4325994914425741 1.804349974452351 1.176288914816779
0.4789567230557188 1.819744836521647 1.237765234101335
1.540904404625943 1.201782010990898 1.816520939778475
1.475725253605617 1.204504139691437 1.855490233685304
0.5592550018207749 0.1085656773460442 0.8946971274158293
1.277542801374768 1.276979864596487 0.08008035785012313
0.6848533145797435 0.4460900023605651 0.2293728001272554
0.8306406220436126 0.6163084278048252 1.907798534105789
1.033254534202229 0.4273014607015053 1.819091276379112
0.8552623759900367 1.232262041132909 1.961823977890303
0.775709959798585 1.22889008026899 1.947260950858264
0.5600707840124424 1.655486441134514 1.613840215698989
0.5980683502666708 1.613379594140412 1.679865003096047
1.089071233519091 1.368734177923288 1.925257489237793
1.129008910072036 1.304906247530415 1.943604197393667
1.166270456985855 1.363258796545375 1.916731793855826
1.205428956299487 1.297052555748616 1.932501326024215
1.243115332366254 1.35847854178036 1.901325729274091
1.526777140728615 0.1510042571004919 1.041377198362117
1.466577160384432 0.1186900548978291 1.074823352448338
1.797714193717675 1.28621260831556 0.4692134063650787
1.834084672985247 1.300603131893773 0.5374629578220259
0.3970109244733147 0.348909735621878 0.5390383503722892
0.5449819379213416 0.7847246145923513 0.1359310955602149
0.5155287398771681 0.8575047523050593 0.1368761951496456
0.7387508893259795 1.289180748909475 1.920936152310348
0.8364085127732943 1.01958960005668 0.0136663480968654
0.7894991698235602 0.9573695173060902 0.02333626951733592
1.138289660773296 0.2502446227067375 1.647103426001628
0.9788514987885872 0.001812568236830847 0.9436564824797086
1.090415890833601 1.239782666755708 1.966607076018114
1.281581408250778 1.291260349428521 1.914264359678471
1.316915768163006 1.348399595150644 1.882146313254507
1.498640207163154 1.267476476746132 1.824508507043901
1.243143228192401 1.228926177406041 1.942589081138985
1.243910514404538 1.840152733066667 1.484407933547256
1.869884111156122 1.25978096717767 1.419303568134543
1.894738761980862 1.279600510386043 1.348232827862077
0.8312217300818744 0.4444616336529158 1.814181195508627
0.3436185080140317 0.2963024212099632 1.271979879004522
1.188591621764966 1.785549027973574 0.4106393931981597
1.161571041758291 1.743333604234924 0.3508852556902916
1.608751745340388 0.2560700208414551 1.275661928191397
0.7056659243853363 1.030605250194157 1.955212421711849
1.846678821255823 0.6408767558252605 1.392639107999014
1.879265815730837 0.7106835354304971 1.37840138558968
0.5186791306637801 0.5781454804236612 0.2316452739427954
0.1610066693772341 1.433150002548394 1.329349763113388
1.525556507877168 0.284947238737862 1.460966273863228
0.05864399549511179 1.305759703748425 0.8573119614464199
1.548433039961743 0.1768921212356847 0.8526411841984658
1.59906044784948 0.2215307951161369 0.8126172983707769
0.02672892759642886 0.8716284277600667 1.190431507537619
0.3843686432804926 0.240815824917695 0.7887243011411423
1.256304664969931 0.4596210774114781 0.1985647008418461
0.6201015710759098 0.9030977329288357 0.08006134207900761
0.5230309386350321 1.677430172573716 0.4400099324207914
0.4641658052299074 1.674311320049575 0.4918799754309161
0.5808726279158408 1.676113179242009 0.3940270510781119
0.8281945341042306 1.707211254456241 0.3141901696105781
0.2743814993102377 0.3484600022534886 0.7787006037215257
0.2899649235460375 0.3127576196756593 0.8465460952235166
0.04283287884537879 0.8856395359745636 1.265993959421002
0.5185565459689783 0.2938199972307802 0.4808449130948016
0.0746078799142329 1.366699365837853 0.9041824693634521
1.584838428719574 1.800625186369414 0.8697566767785716
1.633795338396311 1.754914284865809 0.8314535923472405
0.9990957170145408 0.8647688123721009 0.009186340341923782
1.032161154625143 0.2329115091727656 0.3592653377773498
0.5530247793069595 0.114274929843791 1.125316607770822
1.395254529578742 1.532627929092329 1.748385826962473
0.2811654764055292 1.322047877562623 0.3839138921821725
1.745121992878124 1.499162597790977 1.442300708450593
1.565078023769057 1.785661975857612 1.251837421255799
1.856761531875938 1.504778124015467 1.105634856998158
1.688795637487363 1.713547881720725 0.8718985157375505
1.681001812452421 1.70296927289133 0.7948884868976097
0.6741861961406108 1.502180117241341 0.1989628628695492
0.3002400797295703 0.9620014245106847 1.713366779604927
1.834149169825673 1.243165182074023 1.495041267679825
0.8802158233436712 1.992513869599708 0.9761678856376723
0.8299336086384395 1.225082908942245 0.04061733045079774
0.9065630479702913 1.213922777200713 0.02762837279662878
0.910279347188947 0.007808131321503486 0.9133657100944927
1.947125255865422 1.248751345572388 0.7973265735776282
1.958794040546524 1.255023198971811 0.8747915506099717
1.929641423678384 1.240705089769711 0.7210235079075963
0.9651383391851596 0.2247057827338258 1.630637408721415
0.02149976123533237 0.9049482023598576 0.8169632864617977
0.03811044277207409 0.9121555064794888 0.7410563291872347
0.8036446552444545 1.967712052002419 0.8419558194832896
0.8809684232899597 1.980193779216138 0.8417229045884793
0.8754935254238948 0.02395192063015839 1.178404833306368
0.2777301205925325 1.03375648831177 1.690787029986507
1.522830279357239 0.3277945136008279 1.524202521018436
1.80549149772777 0.571483083928203 1.409336902475931
1.604553118376431 1.202026023335789 1.770519962724172
0.7944101427443706 0.5536769360650351 0.1290645642796964
1.349240143973587 1.246213852561094 0.09589267194412587
1.402334772720465 1.289709382451714 0.1315558714693164
0.9016725791690212 1.696110836660015 0.2888309473850668
1.562674227950841 0.4696020153889293 0.3659056133977849
0.0436322850074462 0.9836101445398431 0.7082943840823142
0.06090638501416723 0.9198766835875404 0.6658092813079491
0.1472794480151142 0.6285806476218785 1.367308215129485
0.9502159800363366 0.3639899393896674 0.2299267864944927
1.72210622686175 0.4274792889751379 1.388307394437799
0.7545054506886781 0.62705058725564 1.894785539552394
1.786033368337868 1.363011978637211 1.500373707567976
1.53086253097761 1.844998528663365 1.064517127654564
1.473460192238308 1.880476855312684 1.0244121614027
1.904222139958609 1.206059434538812 1.374061266434015
1.927878803069195 1.221543932214187 1.299932013819721
0.368910430277101 1.199517745236069 0.2503876839839935
0.3915372823839876 1.131922649728401 0.217459562859545
1.532415177707885 0.2711082567837225 0.5695921640845543
1.491082518215522 0.2878629006255516 0.4983041638625564
1.469093021648506 0.1991594752937023 1.372298524075528
1.668925632401339 0.3870000430679985 1.420439711632754
0.755844277405217 1.714097796790393 0.3439113476493242
1.969247257408179 1.185883001742057 0.8387323229221472
1.840079284738007 1.226523086125812 0.5070962702452775
1.064719548706685 0.6041975804855821 1.916052304577493
1.626793465631366 1.739621532598901 0.7548675052999405
1.670159153866528 1.686848229232239 0.7187061705450379
0.9034278692961218 0.2582241103965827 1.66365831055926
0.3071223394189238 0.3680667464101691 0.6527523787337552
1.833699062290184 0.7544905443544252 1.494642275513407
1.324593446286376 0.1416256196213147 0.602718591251187
1.268099242248902 0.1053638275863042 0.642580197366547
1.376739000837535 0.1840873526184977 0.5614178787378077
0.4960070691003857 1.847246146149777 1.167824591277819
0.5430204852261356 1.859479533863329 1.229051640350202
0.5284012623859521 1.82997056564682 1.297898457264776
0.5955628250078564 1.868503575180786 1.286587004908748
0.6127788907813889 1.89585934559109 1.217935415875007
0.5822050702537562 1.836804027171287 1.353845187600803
0.665754322101358 1.901723158487725 1.274180911540168
0.6860205337607312 1.927474876563272 1.202995684988739
0.2354295044477878 0.3739349202055177 0.8467861847189587
1.318485656159908 1.222330952638697 1.921485666909238
0.5216897094399402 0.4481779871468783 0.3168369652307874
1.801497430590143 1.212972652448894 0.4412115623366195
1.103624545989728 0.4831214815960748 1.849763820529555
0.2236013399699641 0.5451385762045029 1.436240995146373
0.2703153238098203 0.5312178012184178 1.49779867761851
0.07087952902318695 0.7562805896852108 1.27809350846008
1.294270595557091 0.6061421810100984 1.870793221730046
1.336087072947604 0.6715245509557994 1.882694374499307
1.257193083247568 0.5439473381752724 1.851978689623274
0.5233131276506892 1.724826470619899 0.5026106020243972
0.4656634563598582 1.71967940507416 0.5566648987021097
0.4086227967250653 1.667115873158024 0.546977467196913
0.4120978510139965 1.709977067641536 0.6123098832304797
1.289102189447261 1.200990445349887 0.06403912211308005
1.21846541483376 1.233260074594549 0.05244388022573654
1.237450791426947 1.739418577213339 0.3700180246050547
0.05843528701512868 0.848771602391577 0.6990251455378613
0.08389464620321685 0.8567171387409543 0.6255390508820822
1.585361762307954 0.2339070950569172 0.7345696546670011
1.645010537438206 0.2691699942161199 0.776731307076852
1.655665448439255 0.2596552719491013 0.8517013035452046
1.606422995915533 1.204534897936296 0.2316142729390284
1.627967294328572 1.270718578193559 0.2703641122624859
1.566128886476971 1.271049472832256 0.2215205415852639
1.584328978225725 1.335426541101697 0.2610489321137482
1.520853789468078 1.334995025668085 0.2148314430809254
1.41024751312074 0.3920863087890726 0.32019273171247
1.311666700044535 0.5133358460210612 0.1838983707188708
0.2608210072429852 1.249452934047683 1.625609822782321
1.1675818769694 1.852298683622469 1.495482863888167
1.135189605510526 1.819714206760398 1.55658996559144
0.6620575767939409 0.9672749132754564 1.940597675574678
1.882831376509969 0.6481248885773692 1.311115198296105
1.910867634774354 0.725344032885298 1.308032874298933
0.4426542302760453 0.265715851857094 1.38754674912436
0.4992749665431173 0.2157615255871399 1.366393853824261
0.3897949179949696 0.3204719474556708 1.407297659826994
0.8869280534177748 0.3954461276674394 1.788498161281187
0.9048124733228854 0.4531525156966054 1.831803560749858
1.357354723829369 1.489659571286106 1.795318241715065
0.523957163162311 0.3856627535585145 0.3707361720786592
0.1640965163871857 1.384586551887401 1.391610201847859
0.2062813804540593 1.40430821470919 1.454472904038023
0.2553496725711233 0.338235051815679 0.9130342411367003
0.3131077492939364 0.2784542334555447 0.9131049903519624
1.898944939108365 1.301097658343732 0.6818204962739128
1.906504715939796 1.231019836241525 0.6466177208151924
1.666983604208986 0.7977866529715619 1.717107128677402
0.8269075383391666 0.1978879393196025 1.571537611909522
0.7321042598551573 0.8200134139326747 0.05351349653147397
0.6199432007915846 0.1598395344046118 1.386894328500684
1.225435103593566 0.05583097433585693 0.7597420864067516
0.7131605753398209 1.613080767950786 0.2638919125362824
0.8974380739887206 0.01872135719513524 0.8369868824054343
1.653135404258573 0.3528900532213404 0.6067280069924753
1.407551295009985 0.1569553859406143 1.350966836953501
1.036264516958738 1.99920622926826 0.9835137572123004
0.06686772204865532 1.359035365672152 0.9810855070911664
1.494917973972697 0.1358534330179195 0.9088577495787722
0.5178460569305294 0.867381052229977 1.865990640754814
0.5531985698504097 0.7974799007874815 1.87140925599355
0.9878519868272354 1.382036820333279 0.07593274395983907
1.891149620232971 1.448922005236901 1.065737261676397
0.9058809129949262 1.813705495745627 0.426393023355979
0.0005630959386160317 1.027638396590475 0.9809738644464118
1.914718942614603 1.297321137744142 1.273659271855625
1.944742861585084 1.238375316506479 1.225029184694926
1.928648044835359 1.313093648682486 1.198960237178572
1.952918318688147 1.259317629086712 1.157165661495763
1.893647592815036 0.7588964894082276 0.6214989074834598
0.04630075370475217 1.239497030145586 0.8180689136861966
0.1076792483021187 1.277179918210055 0.6437206587094958
0.08280385253319289 1.20442093703399 0.6580010123199302
0.3967635999760984 0.3574538060370469 1.47248305187586
0.9088371038911014 1.74943901605667 1.655767098583826
1.810129666327898 0.4997576341044565 0.6943081631795229
0.7841410367275699 1.361677683272198 0.09303023126577825
0.7192290378990432 0.695488185443776 1.910186915768722
0.6792364601166374 0.6377183830455913 1.875135864593832
0.3139049819941225 1.095468555706041 1.721220757562424
0.6988233756657127 0.2316785119077206 1.564778480371082
0.519656910715415 1.792508720209906 1.375766476641808
1.906518482729764 0.7824213044521182 1.361778594879531
0.9440811882647023 0.4247094155912841 0.1839645657296551
1.214102478541799 1.823976437941284 0.4753830364924793
1.164318335009932 1.861984031344013 0.5204345566166314
0.4454371670421159 1.707725670024993 1.437703598670836
0.4447068799261901 1.663017178702447 1.502053554458227
0.3901229634700053 1.607355227379236 1.509087053546353
0.4444741108147124 1.614252408434645 1.56043283734729
0.3927371273833916 1.555804153635108 1.567726647554425
0.08801856066864422 1.371967069420652 0.8269960879583351
1.359778411730217 1.777507586253702 1.515792058654285
0.3899705559498771 1.784068862586586 1.11445565129811
0.455222127390975 1.130062013167373 0.1715671769863081
0.4177624141749527 1.063413562205454 0.1894581357011621
0.08354376222635096 0.6857583493248927 1.247709808499285
0.1631023663819829 1.478398818583702 1.265964135218042
0.1264074365450973 1.409135286240302 1.263522960345693
0.7392758389992951 1.921464148309902 0.7120299750842347
0.7371126881934773 0.1018574988894025 0.6475367976796154
0.6807768133045227 0.1005871034797167 0.7014150059882804
1.199831879291851 1.878623025249113 1.433692056096008
0.8533939183924023 1.014884650126566 1.989082961144451
0.8662535439595721 0.9470365695476984 0.01040070708829322
1.700650295004567 0.3112700658200426 0.8136126563457597
0.09631014880132482 1.425420438399876 0.9513985243827541
0.09154292990670021 1.416944116965184 1.029382905329803
0.5133799958356481 0.6458830035701466 0.2013748536474792
0.4638331460069148 0.7007819953222466 0.2107005065529172
1.688344841292226 1.446954445368462 1.571325741789875
0.8802620809917359 1.284778293768433 0.04891422355819541
1.42596041133597 1.465711407649268 1.775674295538938
1.884166204140488 1.445064990828707 1.142011539652396
1.540448157872196 1.397757949298067 0.2585794699209188
0.9896613517270569 0.2713774370916744 1.684837406376719
1.126859258513591 1.426273449307981 1.895654886071894
0.8315974940717643 0.01947386819243635 0.8989599047922712
0.8255336401564961 0.03430190326562765 0.8076755989309528
0.4818133191814514 1.06160862911822 0.146954315033228
0.447423951891724 0.9944133527487186 0.1665562403919926
0.1310081851833971 1.452807811568023 1.199545261945067
0.09818026851264661 1.384642284040377 1.196904761822256
0.5144994139340892 0.9921681107426069 0.1257987403118679
1.558085987928559 0.8163305686447619 0.1907994253193787
1.082712084680055 0.3182089720145893 0.2731439584027134
1.473814231502381 1.878963869302886 0.94593901142314
0.8267859640339754 1.08618309545247 1.981106198024756
1.722647401606098 1.647991235265247 0.7594005570011113
1.708826849926843 1.628922410007758 0.6805925814687095
1.651938188823149 1.66850670221318 0.6421237825028729
0.1721452637847695 1.333715097968984 1.450877776247136
1.451534528474626 1.134963021649128 0.1180127254985286
0.08893056393822896 0.9278352243275291 0.5941124197191687
0.114120791562712 0.8708541945441505 0.5544224096841448
1.683477364348636 1.267063390978573 0.3206357106661649
0.2598521715023551 1.321087432672617 1.590833354297071
0.01111079503900325 0.8896483051220718 0.900397571569885
0.820537569109277 0.887106440450488 0.02273428377383802
1.577508458806223 1.336392377311179 1.743857613051177
1.243271965353229 1.860570541248784 0.5525214034079926
1.935323748407137 0.7963805663734933 1.289324406013809
1.93736575547151 0.7435086934549258 1.235706703630013
1.961028412617524 0.814613302042257 1.205075991676664
1.209275886954688 1.69835765457784 0.3155292632757281
1.12315984787799 1.696364738020421 0.2929584145805705
1.184342522173347 1.641274581377514 0.2551612618842494
1.091190144727817 0.1367664742562098 1.496499987448605
1.230840361128323 0.7347172999530622 0.06387083330880461
1.977632390406754 1.193130452449213 0.9167201250941233
1.964477167909037 1.259908815699891 0.9527644190927681
1.980268557751308 1.197604327825954 0.9948927200367654
1.633934350688742 0.3279969509102765 1.382804311667146
1.430296483628186 1.272235090930474 1.860658463877103
1.45770768053704 1.33172547839573 1.824901137204045
0.6217791148125925 1.795931916037052 1.472695829304259
1.759664251185507 1.589049951777327 0.7244453234258388
0.5294665416997006 1.588946913743531 1.657069096375663
0.5642513549914809 1.547789356448045 1.714177806526832
1.689393656674576 0.3232258548572519 0.7417111256690294
0.5434132537995859 1.888661956734847 1.042526107819914
1.936579720068932 1.326161867402784 1.128206334507813
1.003030289602173 1.996166541486566 0.9125755242073392
1.047283450948887 1.98727633073424 0.8481786509139773
0.6331108032028581 1.043620522468621 1.929241393445811
0.6767383767284738 1.102160859111498 1.940778976054131
1.254722379750625 0.1321719551372073 0.5733959754013085
1.197215625230907 0.09863430608373636 0.6144537861739072
0.6158684142352799 1.048350527985427 0.07798852975604909
1.470978055016191 1.876355982122175 1.100895313527652
1.411316181055129 1.909382305355455 1.061990498535032
1.007317437388252 0.3950268200324371 0.2037877753827164
0.5880673852255879 0.8614798518428243 1.900624055552387
0.793021132874612 0.5603666194965671 1.874003569392376
0.9136218912116301 1.009308171897733 0.003781058071034904
1.787056954522964 0.7945051006521333 0.4183530308863909
0.3323353813186816 1.133651332593615 0.2676330986062515
0.3118875117027351 1.200397370069896 0.3026176819574389
0.2233033990397347 0.4096143948048333 0.7804841071013148
1.964536133406176 1.192199774699596 1.180912393050581
1.240819030615722 0.5213881310784975 0.1556441073689541
1.188497186226961 0.4692565580932222 0.1736948447108265
0.7359511593973149 1.92900702254301 1.25927622691282
0.758054819518535 1.951899967801848 1.18801324671584
0.7185363500274771 1.900183043698975 1.332338233703247
0.2658894024520758 0.4819436060957759 1.438975173902558
0.3121306895130018 0.4702119177486132 1.496145542753877
0.9572206010396166 1.272848310943057 0.038894531156903
0.9837318469030347 1.201241359763687 0.02059341317546981
1.034480552416519 1.259435035349701 0.03485516426903523
1.060963683568578 1.187116932248269 0.01955587464060604
0.6935774464949549 0.8961105844653617 1.946209389111796
0.9235163125964875 0.002974037883645364 0.9905408019832977
1.030402393784612 0.1985759151540651 1.597323304987359
1.408615624893582 1.902535342245691 1.135879457940784
1.347489470153222 1.932264792544863 1.100664913022943
1.341553765671361 1.923414124185025 1.175063932354202
0.9890150140864034 0.0002915174569186885 1.021500698032574
0.3354043976344525 1.327994524687953 0.3286340214971432
0.5161745474370057 0.7351719963108654 1.834133718245607
1.465959720268691 1.508964797913571 1.723765413357064
0.6727326401920268 1.628901368416269 1.705251121238714
1.460960797914292 0.3220517830943591 1.572626717836918
0.9320118026993818 1.487946100823051 1.870221930153104
1.847520481397053 1.498605923254714 1.181937260911068
1.214346747168094 1.7266649338933 1.65269713177576
0.3094888403930459 0.523645556112935 0.45568319679868
0.3202061922260104 0.4609092240880386 0.5027460264223325
0.9894861122396157 1.624957481987654 0.2194120140100716
1.278819005514071 1.40656945868432 1.870035193213058
0.8751091099263884 0.4583259927664471 0.1687409937545543
0.7023107511606591 1.220091743652739 1.928946034762712
0.6533598714294258 1.282892661272793 1.894322292835515
0.20516037103845 0.3987993790070756 0.9176120303078927
1.69790750062956 0.4480180667657326 1.456334379537595
1.634557166655674 0.4008070417492716 1.488164932198805
0.9235666981404212 0.8728957382328576 1.988940067449728
1.451300850060168 1.133059455528774 1.882396013153593
1.515819740433209 0.3742246671718221 1.585094204554446
0.9556468892736272 0.305426115995345 0.2819471320107536
1.634868338847126 1.759215356506601 1.14329771377815
1.777853666870621 1.615592655240981 0.8735509756886667
0.3205655704358494 0.5201844807110829 1.555108929285365
0.2208247265988537 0.9133073835928348 1.620781993602206
0.6447815463441721 0.7076349872441181 1.887886563418219
1.896268810621498 0.8293963594456459 0.5906143420480794
1.923322456428238 0.8165803943028055 0.6626086994286737
0.5810081154295976 0.5991539814993878 0.18528025056689
0.5795925695605318 0.5291297023398565 0.2244107045525116
0.4419387647166785 0.2336257854018935 1.318179541883492
0.5000705127119083 0.1865376588199037 1.297236483665216
0.3435970295644434 0.3754520178956364 1.423172492552086
0.2262505033065333 0.3668572725580438 0.9789761313272833
0.08393136359989817 0.7878372358548784 0.6596983471765683
1.527359315269255 1.838238563422847 1.138738110804292
1.106555025581691 0.5403189758191087 0.1183314780875456
1.773532068261594 0.4696707504667229 1.34698562860789
0.6404022040521451 0.5458274255497796 0.1848824024923128
1.032497530476781 0.5047845028979593 1.868162151871924
0.8446093042802606 1.961795557103487 0.7746047071926098
0.9274688266051597 1.971881929250924 0.7759804819184972
0.02501152504147552 0.9428940244316577 1.214793811019867
0.01262724743375387 0.9305975925842001 1.142402083322702
1.363632339618591 0.6123488363546297 1.847052593944378
1.408816589992822 0.6773651145474682 1.853683621979286
1.375666721228547 0.7390212999126944 1.889249477178442
0.3658257319921046 0.4582546324160415 1.551665618375816
0.4692079469438135 1.758208958621374 0.6213458418573876
0.4205084145042377 1.748978657987488 0.6787205698790091
0.3687342045586192 1.701506519655067 0.6692552367955074
0.221488672070825 1.118008317622839 1.616436654700043
1.555135450257879 0.1711351789777619 0.930662129115793
0.7345077277410164 1.161203628237934 1.950540500775053
0.9316608747700333 0.004522259502307224 1.065983574747138
0.4235305732133483 0.4170046232564585 0.427462323793512
0.9040751233463211 1.078064680232601 1.992322691335414
0.9355558278157581 1.006348720157328 1.997901118560277
0.7500219027653939 0.0738353338207024 0.7176350552494941
0.6934901193203407 0.07611230462881347 0.770907836477415
0.6278078741607732 0.1043993729972629 0.7563351925788601
0.5786131190977974 1.264758974302985 1.867372919873306
0.744680047672193 0.4674326935234339 0.1930404062063443
1.341048472247746 1.847035073031009 1.407697834962159
1.291629198986019 1.885851608794509 1.36085916573499
0.8180715492337298 1.754007975065336 0.3688312330765596
1.314184849323453 1.902941377418428 1.2932315627645
1.239533640817585 1.919776413177218 1.310861680944314
0.2821560940175791 0.4538871571286275 0.568188826574799
1.279180482566253 1.159300169338606 1.946932792864819
1.20739273446442 1.168095144177896 1.963707567779346
0.04255696560630351 0.9724128744649356 1.287300863896549
1.745709715227289 1.567192655448323 0.6504152288484004
1.792500507134432 1.526174320176842 0.691643824485213
0.06332082115671089 0.900482473077851 1.335750469481073
0.06953740019647969 0.9686295339623722 1.365041428097491
1.464230941376141 0.4476923594222795 0.3075796773429501
1.450132814911688 0.5030730101016534 0.258080856393199
0.4832683077769647 1.798344677939123 0.690752310504029
0.8079639890335895 1.951090644578926 1.241968502674524
0.832826612507764 1.970234873705476 1.175206587661791
1.96424960683178 1.263693432855864 1.026238696489111
1.463791888216188 0.1671069680619824 1.301970663763815
1.402999769607045 0.1280806179579596 1.278114683028593
0.4697634045340919 0.7902757228323707 0.1784983990306298
0.4487695590032765 0.872277339789161 0.1754807928330449
1.064498658526013 0.4833647201199753 0.1462272488351286
1.93403275859586 1.173476302718332 0.687768069754251
1.503976601246786 1.269213085667545 0.1793101073480331
1.383904871791829 1.420708491949199 1.821961929906933
0.7161865014334776 0.9652272407207473 0.04175120493499296
1.928122366999405 0.8555668955751706 1.343115068485235
1.441901967675495 0.2003909615210492 0.5933699020641816
1.46682222346399 0.1156911328110442 0.9913490410287581
1.405794961713553 0.08668612032361578 1.034470367540357
1.391559645038547 0.08757769086877709 1.119023418607157
1.334880256341956 0.05978833894377178 1.062106733340548
0.8651390474791408 0.340176979572447 1.739219930196033
1.778741984751164 1.502583848771591 0.6245397542485325
1.817668718554623 1.46759163199238 0.6641787195725316
1.181275211249418 1.893434351820855 0.5890080818642198
0.7085346450761494 1.949093367250808 1.119455963097858
1.124008930263008 1.888757528675518 1.441284307943994
0.02556380027274296 0.8345241721874969 0.8480399951603442
1.624996381327474 0.3063034288584627 0.6419991752606754
1.098941481897317 1.244862914759733 0.03550389522023956
1.083811722775953 1.307441788568848 0.05213126342994379
1.207956428359181 1.309716601597345 0.07219088676652652
1.149903721324009 1.192992132170361 0.03031813915410808
0.9374011890445039 0.3548612060490435 1.761496766510839
0.9409323403528891 0.4925076363014623 0.1403707122419082
0.07884869308076503 1.260688816471752 0.7109989433798853
0.5836724484020046 1.903399051128824 1.102671925081589
1.717633650412388 0.3105363838806702 0.9018069969730621
1.661342518630146 0.2532969463569885 0.9288619459632381
1.711762112968014 0.2982000750547202 0.9704778068208398
1.977147584808655 1.202725755431684 1.063912953204072
0.05662409666435197 1.187038778014561 0.7260321177136452
0.06467302644295014 1.12805871608382 0.6702054915988238
0.5823293968071572 0.715885470762875 0.136964542150849
0.8961033482319922 0.8721735057558133 0.01366036624262212
1.991507857470787 1.125491284893069 1.034118997487869
1.829688303480081 0.8574545064220197 0.4602796081960996
1.934388852840248 1.145796420999927 1.325055188101186
1.9084617206828 1.132009986460572 1.396573657129071
1.052973813769895 1.663963416476556 0.2541137106532578
1.305058188846559 0.568213398806618 0.1511773845805446
0.3395758562654265 0.3371010563186539 1.352710845932771
1.533613199847102 0.2143076754424696 1.312960898644417
0.6244700774212251 0.4255706647217662 0.2726704900667196
0.6277454505953518 0.3621471766754133 0.3257816924582989
0.1047563027036281 1.425394424732064 1.132583203528949
1.986224915185814 1.126433867305152 0.8933468525312185
1.862166703459874 0.5717055833220664 1.270614981269779
1.899214650028669 0.626376054930385 1.227636027123203
1.910589009929174 0.6155142914515421 1.151652216990711
0.9438577361116043 0.9372378580291142 0.003551827870253876
0.9418606151427242 0.8028819345294507 0.02134567890722217
1.352129872446895 1.177327643499324 0.08100083798650271
0.2184978754850389 1.344734959416156 1.520011766342785
0.2527699925294207 1.420202050344954 1.514856827498106
1.897084247356051 0.8324471451017256 1.408859259355912
0.5489448515184804 1.767755202343006 1.455083731090845
0.8110039570297064 0.01812287985450234 0.9859352683511299
0.4231822826972056 1.775900128154578 0.7445390203273626
1.666267480273423 0.4687126057122135 1.523279418094194
1.608577180454011 0.4402482659254977 1.562416048518563
1.909959607242159 1.159342733776358 0.6171378754951438
1.637501217635083 0.500686448364134 1.586752225957912
0.222064173030705 0.48982374291902 1.366791542743887
0.1766842147611998 0.5248315375364766 1.310428816408318
0.1179072404378075 0.6951452691041635 1.359132227150925
0.1223988480460185 0.7559976219844775 1.412648830862048
0.0131341977363657 1.002516039612909 1.161522623391337
0.004284423930782433 0.9835954128247342 1.091002093892147
1.839434883706915 1.151787767587323 0.4781671248121541
0.4998674843734305 1.663572492466661 1.556362304667221
0.74965448865927 1.76988634664197 0.412971773927498
0.6874469512578782 1.717870409477573 0.3779287284253458
1.517268081702439 0.5024470219186283 0.3036705049660494
1.487900973116853 0.5594419323804871 0.2464343230434463
1.315304172076194 0.2038749507974139 0.483503935055139
1.379399981954287 0.2471258567489992 0.4621931776955985
1.36584282364486 0.2916459074370921 0.3963498464036185
0.6092296984740322 0.6528545191487627 1.852518965519165
0.6391585828476591 0.5847123738804227 1.83506266786359
1.237492099244927 1.152782723985323 0.04070080681371224
0.6791464151422141 1.758578740986825 0.4328921876690892
1.071302509614351 0.2644892379242137 1.673750599994829
1.347958060842577 0.06255263914538511 0.9891541011718004
1.238324594291534 1.095168992875817 1.966511381490554
0.4553020005050042 1.561777067476126 1.622664127603376
0.7094444567974265 0.5641492311733374 0.1481716231379325
0.0601221609507383 0.7799603571078584 0.7388253396288434
1.177269317027933 0.5285995959906762 1.863919700169117
1.17441155361337 0.4648189490829475 1.826536056506605
1.24482713001272 0.4470449856767459 1.7964298013915
1.743957265743084 0.3707419753067339 0.7751402101148281
1.730389231891834 0.3856303661163708 0.7015347207828833
0.3996161797192491 1.504853225045747 1.620211648960256
0.343270540775703 1.49464459585157 1.569239089646696
1.578003929370996 0.3384812231531481 1.477812060867799
1.606629496655624 1.40755160450148 0.3174296054943396
1.541499179778547 1.462259478406096 0.2977928988376115
1.309249434322503 0.7322657186213543 0.08748526480616636
1.260250416508071 0.6694753284780468 0.09279375981936677
0.6035534054769331 1.118384810652091 1.910392846137277
1.372623501741954 0.5636956857619404 0.1809821300320608
1.284735803259984 1.949608878790812 1.131028621543341
1.281350051655124 0.04070840117392871 1.024531140523399
1.738795635097147 0.7338594240146559 0.3808471889948386
1.694208190634864 0.6594149946704522 0.3659047057420001
1.420806003484931 0.2273706356687141 0.5246410063919343
0.6163548080079602 0.7855549154654853 1.898236980078407
1.67938944956746 0.8370430298955485 0.2845455977416864
1.735134247337323 0.8614543900766405 0.3363865941960239
1.973693680931626 1.115740928129638 0.8037230190024551
0.7582173627661223 0.03985508388737702 0.8597755499375539
1.338862586367529 1.1500334964694 1.928796047309352
1.955385137850646 0.7499954901527035 1.157279952410077
1.4377569819067 0.2988568798533052 0.4371792915475704
1.937045884206279 1.108241229816724 0.6679927002913411
1.797002890175028 1.138827475718804 0.4121961849067349
1.760117190240692 1.200627144401928 0.3819622940064875
1.346305131918192 1.937956140650148 1.017636151048471
0.8733773351487478 1.149384025592671 1.980638115536866
0.951010043877657 1.140914494963758 1.988808924569474
0.9248634183812592 1.236452140709424 1.968733647220215
0.9984142826924132 1.202771704531117 1.979224755274378
1.028919049787737 1.131369943942536 1.990911512895026
1.511172415707004 1.374616899448927 1.77354052257625
0.3041926976005042 1.423386459539249 1.580169030375076
0.3371332145217246 0.403704027583608 0.5471879661606953
0.6477588809705018 0.08070284083916213 0.8244467966009728
1.934174688766738 1.075891513442465 1.34865187372934
1.958352708775845 1.15752967368829 1.238211014627075
0.07207306448758322 1.348593460112887 1.13203863797033
0.1222842964099061 1.479119779736071 1.007705863806589
0.1346886098879855 1.495083180046155 0.9217130727528593
0.1753800578275997 1.559444967861887 0.9161949947461406
0.1510083384001289 1.523640265394609 1.070809822703869
1.868573375771786 1.089950724691574 0.5126714065152094
1.976418172589639 1.089708814362963 1.196366699983223
0.5075880468122406 1.716270249631754 1.494456669335424
1.475749694435167 1.397180376667311 0.2152006774752807
1.389826308153106 1.359532956132695 0.1521960704701792
0.09745357387226583 1.344153057272708 1.258782962835467
0.9670608837236506 1.986884673847134 0.8419694486987721
1.007229539632246 1.97426187918503 0.7746968164371422
1.08593291614822 1.97174670263763 0.7801730684489365
1.047672844847875 1.955129504229662 0.7076732478644656
1.127315078881002 1.950533403711903 0.7166678290109144
1.094392195971712 1.935433576661159 0.659332806107558
0.8494580506821617 0.5033622754406637 1.854802955095565
0.9263197884557896 0.5206350823724943 1.874517296669869
1.018309606788266 0.7909640585026841 0.02226346418803093
0.3837511450231385 0.9964833918436002 0.2124563617127103
1.872872728771289 1.290518877468594 0.607964311316237
1.862429367460714 1.35961132280967 0.6437763586615955
1.826883443849682 1.362761647280001 0.5702701342122118
0.3106974560230833 1.304572710984884 1.657341210171908
0.3075058000499794 1.233631336695179 1.682545369590627
1.278641772851333 0.08667489208383483 1.296978129956048
1.472754521536598 0.3939121407247316 0.3603433192674179
1.283416551505034 1.692423837823469 0.3365060006700789
1.311918668105884 1.731424695960137 0.3935969503484733
1.365721468293192 1.671667666326511 0.3557094183204518
1.384430056926916 1.719061745256048 0.4210667241896577
0.8742659839810034 0.532797448789935 0.1248355963828618
1.543242877163651 1.204107797938795 0.1856123875994091
1.473102387870466 1.203976506716221 0.142930740663795
0.1267413213153301 1.309171431465146 1.376606301152406
0.9592181099700475 1.998926280418774 0.9780199241517019
1.782553477635075 1.068406966926564 0.3811861818631087
1.928257505745637 0.6803348191588143 1.190137253542438
1.484446888104994 1.066301274863805 1.872304621996709
1.077336576713381 0.04352449921674473 1.281378162449889
1.007129152683937 0.03170513316571544 1.249708281889857
0.9423841045178688 0.04499807647412968 1.290949711547683
1.877834295218405 1.219708151904392 0.5744000961875545
1.268346612067295 0.8028574772324703 1.942934208473136
1.206960019016081 1.940018914662896 0.7288321726220928
1.193444886218503 0.9314618507063834 0.02128574237047298
0.05839916605449147 1.042701758899869 1.334012618474183
1.274412041535576 0.06436710582643623 1.222011528531017
1.336630601347833 0.07493065231511986 1.175859433099469
0.9226217966533951 1.992792911808195 0.9084858048701862
0.9179423380138736 1.99563160431713 1.044544905368284
0.836266643601466 1.985446238935266 1.045684769571588
1.30218896981986 0.7343082733165809 1.915472409683217
1.619807172923915 0.9382946582271853 0.2176755665398378
1.961059638891904 0.9333784966662554 0.7318098700799851
1.964298788842577 0.8669731387658716 0.7710203065183828
1.978784646794919 0.8654788964190356 0.8454532825003899
1.558018396557714 0.9371196152898453 0.1725572368303284
1.870462924011732 0.9356944264116213 1.488015461974736
1.846665897225158 0.8729250330692984 1.516728953374473
1.802880816747964 0.8684292420129738 1.581439188342893
1.90851214725509 0.9348227776723859 0.5872560018854265
1.784410713687537 1.066313149771191 1.616686629026147
1.755651456138797 1.134529422256386 1.641009135178805
1.80956503144405 1.134994456761858 1.571297607649958
1.772174749038039 1.200399046964746 1.602981242596868
1.721101443066721 1.202473414541216 1.662583749582733
1.736219840672885 1.267687836840352 1.621549328860811
1.78617353156543 1.259930344622279 1.560684754751263
1.749825576715744 1.332471421817887 1.572035277039183
1.730935809942818 1.066284527119681 0.3207804455054631
1.677364651443151 1.065013787334276 1.732768951601903
1.70097483142949 1.134975400452829 1.700297027678253
1.664786527906787 1.204119316062514 1.718605717430505
1.643178042477536 1.135263840938011 1.75367479658634
1.623352786925783 1.269303420576383 1.734102833871195
1.038987964537311 1.06787755249912 1.996931580645315
1.095511108452002 1.132349949798017 1.986590654197947
1.424280096691625 1.068232390625249 0.09704333414005495
1.283797666011519 1.069925367793466 0.04366881902483033
1.783500111060228 0.932017502067962 1.617661684050039
1.754148554945098 0.866171122060025 1.642922848017978
1.732983147550371 0.9329255066321122 1.676931841285806
1.134011150140319 1.075485979864107 0.01189935812083176
1.978761368932296 0.9331074402290337 1.193782269914112
1.732075331925855 0.9352927479930804 0.3218564459324548
0.576776201776986 0.1130613376845394 0.8150096599609946
0.5075330707257422 0.1432081385817829 0.8470816238031222
0.5202553949614945 0.1534075959747421 0.7695083181909099
0.4474242671158896 0.1912668922648781 0.7984787359093835
0.480084049281954 0.1903099993939971 0.7278061222077152
0.4448374431008829 0.1769399949570012 0.8801385653520974
0.4977851444684915 0.1385667605046357 0.924415525562532
0.3777540698432706 0.22156571855234 0.9172348390296258
0.3815757421600847 0.2141573891375773 0.9983182544542039
1.184244210535291 0.6716174814110051 0.07359890308280848
1.643307179762034 0.8643496784249604 1.753495098008744
1.115542877081008 0.9332115961758056 1.991054565939969
1.990815486804368 0.9322156848080724 0.8829959072400303
1.072802676391613 0.0242062417366482 1.206219086518444
1.451076563719964 0.8646846365960994 1.882167606574544
0.9942675184505272 0.7228437244568597 0.03919224733439008
0.947223295482684 0.0704485238412107 1.364895426980536
1.320146951453649 0.5496653578398998 1.833489435773165
1.50528387101535 0.7312574169815851 1.820040019611441
1.195627475029426 1.38339433679289 0.09737124268681152
1.526820585747936 0.6653600267848171 1.781329737536428
1.025558390222687 0.1542932046982339 1.533035444477796
1.987730913525775 0.8646009811282108 0.922187737765223
0.1274235451850472 1.364865714746308 1.32478198950255
1.685096328153263 0.7329191031972755 1.677724734471133
0.8227405356675321 0.1563679481624388 1.506817564234817
0.918992281962243 0.735965031555265 0.03889475859471925
1.942443331705211 0.6677008251411105 1.037119064003316
0.7645999021203576 0.7497153871264883 0.0608810477490026
0.83303879912237 0.24406121606319 1.632993295652992
0.8772076089469644 0.06369597834050866 1.329024023019203
1.051023872686856 0.001645449734201887 0.9738321498855637
0.6812685573460719 0.1218187719033502 1.356662302581035
1.165484931364926 0.03340663196176119 0.8042654901259373
1.431433109073133 0.5464658131632973 1.779853969513435
0.7104161341693183 0.5559274857545793 1.847903760306739
0.7539614060021284 1.090376635584823 1.96503734332093
1.78853309684912 0.7446041781861577 1.559453777691749
0.8897732683706336 0.9436910727550475 1.992310119038817
1.88821356684654 0.5421543685431485 0.9618681573271907
1.924442148260724 0.6724107521710834 0.8048282827201065
0.6460594417154608 0.2115814266136562 0.4968874536043936
0.7057683261840527 0.2206120086336377 0.4468435293360719
0.4877076356975343 0.6731214891776732 1.794170619350759
0.4499631525163039 0.7402839576997311 1.793729830472613
0.6776155714691818 0.07664624900319528 1.208533284539875
0.614715308257836 0.1092684984372008 1.241149535419056
0.6772930660201721 0.06269735619004468 1.131620624023012
0.1884478054340385 1.060830682992824 1.581104692376338
1.684341112925373 0.5568841980108108 0.4209269241386376
1.128008371759585 1.53516678920096 1.834991236179036
1.060408860666513 0.3141171513373192 1.725200308510235
1.829091851351729 0.490416901183222 0.7699309507507535
1.199226367776081 0.4093466651068949 0.2180553137450175
0.969881569812722 0.2035122977279634 0.3960958517343455
0.9332436469772083 1.141674931952647 0.01234023925882799
0.8836661246814663 1.080945043554745 0.01009377748329499
0.9609037471380183 1.068791724265015 0.00313532428679264
0.40679929456204 0.6815379179564237 0.2606118574332037
0.3551711604563889 0.738281384760224 0.2818780506558696
0.2362759433138859 0.3629056800391147 1.104097995717893
0.1967917780509959 0.4061685288354113 1.047124686184841
1.395547513755865 0.3197468907127876 1.617088220327235
1.764825231644489 0.5623464366216753 1.472759688956459
1.345135350728251 0.1500751445553983 1.398132301848469
0.8114155075791782 0.4293983265868715 0.2007193111825368
0.8064878223139946 0.4897385245343527 0.1620344495488847
0.3791138013937884 1.392950014951569 0.3217002033540853
0.3935889086562595 1.33060098335423 0.2768343356460364
0.09437815293988228 0.6023845112331432 1.147482179330637
0.8910418868567139 0.278136884511071 0.3165954550364243
0.4801738181291479 0.4395929470064128 1.644767148354051
1.639584010585261 0.6431525543323646 0.3191239511304887
1.602094979824631 0.5744840567941638 0.3244129831416054
0.347645588272039 0.6295554516924862 1.661214456986769
0.2905085571123115 0.6424380607479752 1.607265470834196
0.3713758817065391 1.088690758475859 1.772635533263094
0.6398304020802656 0.2771210058532673 1.589681117686284
0.7323387111012732 1.553219577622119 0.2111365559485744
0.2632584145626014 0.387358973065439 0.7138482773007393
0.2550574744861128 0.4373208523758609 0.6415968603514139
0.3495174269533349 1.263479394964986 0.2876440281772918
0.2820523473688249 1.639425297466988 0.7248882826184246
0.3001456142156275 1.683065063229918 0.7911317207111448
0.5873888515465682 1.623280169818432 0.3357155202151372
0.5964036717215591 1.565940878950412 0.2810974159644467
0.9706338749817425 1.428471649162625 1.903077890641373
0.4952524687967069 1.195932125386963 0.1592619123737
1.061418849226856 0.1066944155327583 0.5547665132547996
1.072088699139834 0.07553006557032182 0.6256224368476219
0.6908103582203451 0.8933888774188389 0.05499426776439431
0.5781245126362159 1.726228084294506 0.4572165784187022
0.5862834958210126 1.772728101147043 0.518616643549443
0.5277865119920877 1.7678431143252 0.5670665483855752
1.781257849608448 0.3758284960807625 1.006790148774604
1.777604029537555 0.3769830698287115 1.084745961360417
1.734026842095704 0.3219306937471205 1.037770504375058
0.1723620741886502 0.6956125015630792 0.5284454278092512
0.1715181804065889 0.765189294435735 0.4915889387949917
0.2122741679759179 0.7752589138825186 0.4264326911576093
0.1762215461322135 0.8356393119861705 0.4574369869049127
0.2187106381032485 0.8458387098068648 0.3951684287399054
0.2596981504050064 1.175732818139157 1.648899952315533
0.9476830510446265 1.776760324804552 0.3723804220218042
1.005116826945847 1.741292443911596 0.3288373291953889
0.9790056029627271 1.691108001473523 0.2775534859989188
0.2010842080557992 0.9864437302920679 1.601290100478776
0.9775230555414054 1.983508210474789 1.179461379958152
1.783085518167554 0.6578509265318908 0.4806628428841553
0.2454612025713426 0.8410616020472654 1.636717982179814
0.5868269723258078 0.5474092185756809 1.790221256213894
0.2624624542304584 1.545075427186517 0.6013383047524161
0.3101255614452203 1.603536228175196 0.6002284648592585
0.3070164111814814 1.554516629718656 0.5392559788845115
0.1669495666015096 0.5012450380055071 1.239312480452774
1.254283882190371 1.672525239139331 1.695017632854576
0.3865287573799836 0.286229370812188 1.337912005390587
0.0657615989292063 0.65797409491568 1.10107863382505
1.435083167901072 1.574989638637744 1.69288494894059
1.284098959458268 0.08434320191389544 0.7156403521006686
0.1356434276744812 0.5102864161600961 0.8856832397224376
0.1827141219845313 0.4435868499160778 0.8501727661265448
1.562630803433401 0.2074234493478019 1.235093577930469
1.586362023353693 0.2704554838224297 1.352057348288313
0.5604852810817034 0.2027605154826851 1.413806737717907
0.1096333864902886 0.6870639073498681 0.6693668264312904
0.7919573936275888 0.3320772022522341 1.714560991226481
0.745895653142439 1.643011613815776 1.722472868283733
0.7053887582101562 1.585153721081241 1.755512633194061
0.6659722002019474 1.523752197710948 1.783651111372289
0.6995415414846766 1.469953370503184 1.829981050542296
0.6629208778706921 1.403322176626053 1.850710812947713
0.6303847515706098 1.459644485137851 1.807534219343577
1.172715428362457 1.948226925298661 1.266524068226905
0.7007911730322189 1.665744929886528 0.3164374452949121
0.7780524457580746 1.892051504110089 1.393679307534643
0.8693582760651687 1.947076475562184 1.293221570495839
0.6881379273802325 1.036307842559311 0.05056659621119763
1.261404952140163 1.780102533081369 0.4315745529300868
0.6341693455091093 1.569466809888205 1.736121922422174
0.2776013854809802 0.5854218456657623 1.553412319785002
0.5405976208245439 1.259595480447252 0.1505533327281277
0.5644974106661413 1.191505294006388 0.1204187262958406
1.398743668843483 1.72680286988173 1.559250458103451
1.430983600503645 1.755140746677181 1.493979340463489
1.470123106406905 1.701814006493523 1.53520217218527
0.06843967922088612 0.9905020088235057 0.6365372688795651
0.09665900735159572 1.004404057931627 0.5710994809110967
0.7120020369954452 1.68560912410266 1.668578568496187
0.03162621411195266 1.045890532972258 0.7547526355118721
0.05215583492035258 1.052498260920375 0.6856190665374213
1.588326308069231 1.634587831583423 0.4988309274906551
1.649716420558114 1.590792216810531 0.5216349412705297
1.691792277277663 1.601365878979254 0.6002719365637492
1.625000460304106 1.651472808380016 0.5699330231683555
1.63383786243542 1.57934730527554 1.512451230863257
1.661670320653772 1.603462151745807 1.445000919298212
1.662183957335085 1.514181264974093 1.545096352398077
1.430764899691488 0.1081308658283201 0.8621194404361499
0.1729940541639222 0.5046555057502897 0.7341146909506411
1.068463982293621 1.996157421627317 1.05461752891988
0.3571989177952652 1.06668523318389 0.2368749457712503
0.3087390676665791 1.068101901636011 0.2806110548367532
0.7857754475766722 1.911799683214419 0.6496727546577186
0.4859275121483153 0.9379468026834568 1.85549919809242
1.432051812994408 1.86951738054289 0.7606869083771725
1.501469332499106 1.833894159199445 0.7694592447831574
1.53221264842918 1.796531773561887 0.7131431880565602
1.572579436990375 1.79104864786309 0.7846054201012421
0.04346242294618619 1.291385652219684 1.011413385322872
0.01684823593424323 0.8576801428156124 1.114706874534206
1.78562644180437 0.5106000449235647 0.6214781671964109
1.043973288408107 1.433125404447233 0.09973962992420993
1.476245474704914 1.49902487599496 0.2760079966178455
1.021750215105943 1.7031164970116 1.710741950199214
1.062150094869208 1.745236795253688 1.663897194381601
0.9432709875299216 1.7050763975824 1.706858608716336
0.8943371658112854 1.544373736903282 1.832161402638433
1.402545778648032 0.2722940220580397 1.555338550579901
0.4641870413354843 1.786424214732519 1.307313240537271
0.6116673638307042 0.1337680148620121 0.6856118456275652
0.1851659300438233 0.9073883342276978 0.4277513496725991
0.6943784030638889 1.806909391346652 1.505462831118963
1.08296026919167 1.746790724180284 0.3401354623758506
1.459691621636186 0.1259067966344531 1.156986256811386
0.231835299543192 0.5087664245826313 0.5893753936321267
0.4108498796677578 1.153051240820493 1.793396151613941
1.954072933297174 1.182735939498992 0.7626133652347985
1.136981438335419 1.592499129726011 0.2061606794662545
1.209897448016727 1.565286115050581 0.202256514005231
1.251392824434573 1.609554397485687 0.2481721710865784
1.667137359153928 1.698453475374133 1.259018313558941
1.609010882870847 1.736820840230644 1.293599717211511
0.1383946200786096 1.34878433557501 0.6312376692936017
0.3192123101566527 1.732370477086063 0.9872875788894939
0.3784323243298553 1.783178836405149 0.9831318415619785
0.2951637217996345 1.707057043945746 1.05723772828616
0.3691265471150914 1.285635430613463 1.721395236485059
1.873453767923854 0.7658802847425871 1.426926778531646
0.5501042144449153 0.9153147958303047 0.1109430848733528
0.05194601184189152 0.6981342478811996 0.8996471064928572
1.415503347923448 1.909441900233273 0.9834955168363103
1.412700284872038 1.906054164854781 0.9064889032475599
1.470585414546234 1.873057980550574 0.8722536489237249
0.1975374242377632 1.245010291965741 0.4559193338006775
1.876777898686454 1.188285509046974 1.442503201635749
1.846087896873017 1.166984542425003 1.506212834049184
1.805113709919151 1.549928023592253 1.222196046247765
0.6325097033680753 0.4842322920575292 1.773908620784877
0.06478026251363822 0.8275139382769547 1.309212873482354
0.09217844909221284 0.8387458640508073 1.387113853209439
0.3807371844721752 0.8753922103435139 0.2247668324552438
0.3386748202105946 1.598279895673298 1.452449083333869
0.5172591596849279 0.5107650014521747 0.2736320510321181
0.002647961801511056 0.9619553071667079 0.9380200576916997
0.0005856173480709437 0.9701518022616232 1.016732508486002
1.604937919932672 0.2118408418849322 0.8866189852449745
0.8575599905850794 1.838093763958087 0.4733979808883716
0.966128594214405 1.866371303609983 1.49825043116012
0.9938816039764886 1.828773795238573 1.559550320843399
0.7755037739096153 1.357990247711708 1.906335714299334
1.584797304530315 1.804463538871687 1.104165864082818
1.295160216737227 0.2929529486988971 0.3573765381640284
1.354975385884595 0.3397114521224136 0.3381756207589572
0.02686645246333041 1.171916491622588 0.846847074572905
1.531782755021804 1.842075749479122 0.9099137435532229
0.5956165087488631 1.817081981586497 0.5890851336709453
0.0526228719289773 1.274347223621433 1.164955079033998
1.581276512015033 0.1862939160250179 0.9998403700022739
1.323013579795464 1.837487427177752 0.5592313116986316
0.250810199615917 1.607331990079114 1.264315146798288
0.2130485187962363 1.583049543756397 1.201892535168243
0.244749896280095 1.472120417371648 1.454642268527568
1.885465779653522 0.6892494627373229 0.6544794410551837
1.917931817354333 0.7479943669639556 0.6935781672160521
1.893307633765605 1.449277816325396 0.9877152446512403
0.6876810721037618 1.948932062624742 1.044551406268458
1.692641202951318 1.719526700754639 0.9497059558665673
1.740372246839311 1.672110549698557 0.9892136616956893
1.522914600143756 0.2037339285479576 0.6958279033000778
1.702924100044353 1.3934382101644 0.4074596348269003
0.07257161462215744 0.6706650475306375 1.177242994438287
0.5526698877174265 1.336065758474658 1.82882783292196
0.9888261793147614 1.916527381598722 0.6001841617555852
1.184854021848301 0.1665827668635272 0.479188415914494
1.768502432263921 1.431764813692556 1.472210924546933
1.942510815533009 1.322284264486345 0.9116472101866722
1.887158604332871 1.365805481410911 0.7186888545971143
1.844119941002401 1.496578276150607 0.7978328887840711
0.7742878972147222 0.4952621947318481 1.833242938517536
0.5080854599239514 1.870356346305703 0.9776412051497281
1.087743815255415 1.863113847987434 0.5026716293064019
1.172329896764233 1.239671121146101 1.955437156682636
1.385421966187225 1.882807239428675 1.268516826274808
0.7275778789125097 1.949177168891275 0.8423646930483631
1.266542884536964 1.963796701113897 1.007128087028315
0.7479169481711275 1.232679818811632 0.06068416552342304
0.8000372373663925 1.293834830075777 0.0652936363786355
0.4034143004701846 1.737957878125818 1.315442028316711
1.501207124341099 1.789778070018505 0.6463871910866769
1.457063614108171 1.780699960638237 1.426146012673863
1.680306459707143 1.709558855475068 1.18360106616696
1.81645864771781 1.558980909117361 1.144691464188918
0.6533734949348702 1.924620042100456 0.84211446002726
1.792207448237894 0.4550480853254382 1.274653908854277
0.004410637349801627 1.089099452025509 1.029378710429933
1.783169541212729 1.619783376591822 0.9498598382822377
0.01413633582728568 0.8374990136400449 0.9591800894661531
1.679213746001551 0.4112653681479725 0.5617532424528406
1.615774792147967 1.721174624760449 0.682622360654136
0.5274319093334332 1.472543571290098 1.743896479972957
1.25406374131774 0.3884264052772225 1.749285895760418
1.125850061429768 1.981672908475548 0.8568914300145432
0.5804956681955291 0.2519511318474267 0.4857636667319797
0.5767959691217168 0.2956091565525529 0.430147485821316
1.287427985397621 1.875956403869405 0.6125912601264061
1.717863076532259 1.563712246443418 1.408535318621726
1.69201930939241 1.540875876485167 1.478082170410543
0.1608099567348766 0.7384129255136803 1.476793743401032
1.760737225330892 1.270376506404507 0.4099360892408782
1.516079039655568 0.3382391308143848 0.4561847953184043
1.879895588003257 1.351217561892514 1.320046837870149
1.202857866799951 1.419687720306987 1.884709502210131
0.1057181119081426 1.43021191016903 0.8768025285179248
0.3893003401598666 0.2411920584969499 1.226398836973712
0.4793625757932272 0.3781861769767184 0.4149493679923864
0.3032516076981148 0.5899694578526992 0.4114283116466364
0.3549935707458731 0.5339909494370296 0.3943579679263998
0.2148631196802565 1.185930532066692 0.4092463149440559
0.09368530154927435 1.14286453827809 0.6022772434537365
0.6487834049511432 1.871316228684342 1.342716986730425
0.6347825781386831 1.836272594639102 1.408979684366544
0.3261539531019837 0.8900103154533087 1.730639291561326
0.2983392341249232 0.8291769546972396 1.691730913596531
1.623288862910884 0.5190911203391365 0.3833658760378319
1.885226053267721 0.5497994536711007 1.117022658922172
0.03778356366612112 0.8460349491821326 0.7754241936993613
0.4513648022372282 1.829050017417775 1.108053173925578
1.502821828890662 1.547010999311101 1.669290052984295
0.614304614143298 0.08175534564077991 1.089809933022837
0.8755884651992361 1.791002305466093 1.599030151791915
0.346123698354054 0.2584729521636956 0.8497221923469902
0.4954768083665723 0.1513078046631949 1.158675475982944
0.7317343134935321 1.304604982891466 0.08608024102719869
0.2312347535086187 1.31468210383571 0.4432458627791103
0.1115596807791862 0.7995041753798942 0.5871135464892046
0.279865635794724 0.3063032627193149 0.986167640230427
0.07512084476871439 1.307920498880307 0.7768778034619455
0.1061630243933266 1.334002536050763 0.7008382261217623
0.1096451725359063 1.384864324305188 0.7567969303473021
1.757240858298699 0.363711095587128 0.8526137297977949
0.9593533556909499 0.02321311759280964 0.789678254420388
0.1254259651442956 0.5165190606044314 0.9630346270491988
1.174842508538311 1.775560172186323 1.606577708563669
0.5531849875761381 1.450940001560078 0.2273361276300926
1.053386876175644 1.427428873772266 1.902471273403192
1.014404201831947 1.483002977212321 1.87550022442808
0.4113897381053396 1.568122821783843 0.4248700851453966
0.4080404435820064 1.61931340772004 0.4842143986271004
0.972580535815317 1.546624101190261 1.836929068070744
0.8842436079678342 1.743275148453725 0.3411050831924805
1.650818168879991 0.3084664374520456 1.313395984220331
0.7503445245250938 0.03361718691861937 0.9385475619172363
0.8378839682407878 1.416746474834504 0.1055500193081449
1.282248751671095 1.510435663943465 1.812275245932499
1.458835367750296 0.1769206732525268 0.6653202617689905
0.8555142667621196 0.119974898266737 0.5475846010467016
0.866441487788429 0.08621531920136072 0.6163860261231864
0.9556781265426832 0.4080696596254137 1.804769559362964
1.095957503427777 1.857174550588263 1.506007853061311
0.9337794473657272 1.58260421412024 0.1899461943190756
0.141083721194324 1.220000956039657 1.462452597943019
1.069929601509365 1.916934493280892 1.39286255340062
0.08753247838688327 1.249456420721883 1.32430620740566
0.5670950722440653 1.064051392337647 1.899161132758883
1.863803766869502 0.8449476988568385 0.5206234921773178
1.212284770536183 0.1928473472579952 1.550853675098882
1.20775032512348 0.2385812650737983 1.614069468801756
0.3386968342935879 1.548813804086203 1.511352648835525
1.349532787085437 1.280781423011994 1.893861635402061
1.393703441922809 1.347759400879951 1.850917739219104
1.397647834111159 1.206272674659743 1.89405133170049
1.572390126159201 0.2572183604549939 0.6526601384374574
1.758162916351839 0.4995950103684489 1.418071571170203
0.0650769235216283 0.693028420728164 0.8219907570164638
0.4555924947488057 0.3432714309031549 1.521850605785009
0.689933872729571 0.3244271493338686 0.3310752507476232
0.7592245532754438 0.7549373672688242 1.939133371941097
1.093760051587418 0.2664126144058657 0.3269037212823951
1.383635024380484 0.5036349156925095 0.2212536541665164
1.621217736289179 0.8246138718820932 0.2362407249770663
0.9580195379548799 0.8029729408235314 1.979498840611233
1.490908110449743 0.8092894789177008 0.1499184014206749
0.9862207862492947 0.6065010320423987 1.919221787973237
1.035382506293556 0.7995546893586972 1.979065756571181
1.648790980665781 1.332346113061808 0.3154444328329199
1.990850009997799 0.9324968564235731 1.116874219974556
0.7590687871691847 0.1912972094880993 1.536611542274425
0.3310412185870104 1.73329892449294 1.12151887140665
0.6205913943238722 1.446519906110036 0.1896487901000079
0.8805695622747464 1.986437206410067 1.112596662271385
1.14111979651672 0.6041488313524787 1.907406774997559
0.6518609479393174 0.3250836462156801 1.650605191974955
0.8990797632426497 0.2263000226850074 0.3745374104587706
0.4319991046086078 0.5020169489025698 1.655276936610981
0.5409795596746962 1.512313587686964 0.2741659809330538
0.6073931879683364 1.507282514791133 0.2328465985648517
1.37350836460701 1.432146209129912 0.1791826296287078
0.3293962398715545 0.2590285227883947 1.035381730602698
0.4534556648904929 1.749309906472978 1.373930413073292
0.1776574508253471 1.277417382916492 1.49678197176699
1.455211076543446 0.8710050066948062 0.1190101206629272
1.154653072942792 0.04965069593781535 0.729965507207185
0.5540950849086963 0.9317995640987249 1.89247829510879
0.2601208401353124 1.493512173844131 0.5428079582215319
0.3076339383416666 1.502478499029048 0.4821732001168304
1.076675191877467 0.8653145464760926 1.987917376889188
1.937260305957262 0.9273019944639522 1.34096644830244
1.229755393538583 0.5947484158673061 0.1151363875162043
1.730241877320924 0.3279031029797448 1.122607347343283
0.6479890811126618 0.9819456275708711 0.06417824741018008
1.581310154833627 1.137524306154664 0.1980239597693816
1.979424739284252 0.869104932698195 1.153602283296931
1.937251043114094 0.7389628015616525 0.7688721929040082
0.7950414105002029 0.108921261485837 0.5950670940041283
0.9617583282082334 0.2531277894055418 0.3361329383224995
1.176696731801231 1.922701150423944 0.6573619227565415
1.003709913575415 0.01521607155252691 1.173743635316017
0.8022986242158806 0.8103447046309531 0.03825937230896503
1.341224672212377 0.8020819787408894 1.918909233784509
0.6168621324501332 0.1317566694214743 1.315212457487406
0.6949598460334268 1.925725632358694 0.776432207010612
1.060103199640568 0.003135047210725106 1.051457470724889
1.889113552038876 0.5440468511415204 1.039797206269401
1.344017565165211 0.1192885373847404 1.325575236275565
1.176236726669817 1.685745623176247 1.70618238187265
0.8879354754947488 0.03515743470435562 0.7622598760387046
1.820570035692434 0.5175279441849324 1.306407460550978
1.94566105332276 1.324892480953098 0.9869597527389747
1.896837775550761 1.367639069549825 1.246015281813347
0.1357727525257623 0.8111574538770382 1.466315083925986
1.110446960106929 1.893015937680109 0.5637386058193393
0.9168938935364486 1.643578040635552 0.2391447702222369
0.6858628409281861 0.7658772213710543 1.920056720978305
1.525638820360791 1.528349919114017 0.3332540262574295
1.708240358063031 1.321162861889949 0.3713108786105748
1.313271431754318 0.4366838638502387 1.764549501863616
1.565450736189439 1.267559540197572 1.780177772941581
0.9522918259165934 1.791242657563398 1.609638406744226
0.6945961539698781 1.349857545351693 1.885623051185152
0.6140915673131446 0.09256026468693401 1.166216149504576
0.204758247876146 1.544356101571258 1.266958780266028
1.685525770588453 0.2770735148322697 1.086207394706834
0.3308565135513057 0.5758300671215034 1.610185924604245
1.624419161513059 1.74992567700196 1.218431201316296
1.721637334541629 0.8002356037010907 1.662822557979875
1.701099992924992 0.8650258062199759 1.700171955260998
0.3523197001186432 1.760158208983861 1.051669395777818
1.972565602147519 0.7984933320847175 0.883762259549175
0.03847761122686977 0.7646278435219934 0.8583149837036169
1.682107240554345 1.268335260204073 1.680239590522743
1.498707501260095 1.729385959380907 1.468280845695087
1.921088527468525 1.388519411631274 1.025467456715431
1.453754876582507 0.3713074606993477 1.631547466945511
1.001840267637366 0.8670814629759981 1.991125257437435
0.9675025780387357 0.9374056608449233 1.997509832669138
1.421356710852927 0.3414999187873022 0.376432709916505
0.2697687817503502 0.900425696063702 1.675904820140554
0.7075519014486259 0.2771059880078598 1.626017856837641
0.3535505826007936 1.156316450318348 1.746771931786471
1.531838900737896 1.481120408008699 1.696900664843599
1.834448949900564 1.487023293334594 1.257882263367166
1.134112382232636 0.418239536751101 0.1977727053183033
0.6387476587145514 0.2577898626295295 0.4355348922207067
0.6325588366505949 0.3060307710333025 0.3808120634865348
0.2443302957649377 1.256791229728438 0.397487292718361
1.146765387958027 0.2035986358215288 1.586689686318244
0.8739760118049791 0.04121552986905974 1.254657209273865
0.5578216296981442 0.1709815342248707 1.34235460014588
0.4124831150169183 0.7546006564011005 0.2288949020911575
1.737792834760977 1.66919859093281 0.9114845840042355
1.427248482244101 1.067427942312759 1.901616441185263
0.478405081093076 1.823222100305948 0.7758480110765393
1.340129645301702 0.09368752275540826 1.250817698693114
1.76143851150739 0.4471279031749351 0.6615567436841641
1.781227653892785 0.4346396611787173 0.7353284297831391
1.82971691461216 1.064895760400205 1.554399117864158
0.1628696868521753 0.4571253962913407 0.9329179349066302
1.213126613321498 0.07468425803829326 0.6863635474439155
1.317267235850297 1.130457119867811 0.06067979850760818
0.3556755707267539 1.613092763976877 0.5428749704939584
0.2954309358877933 1.264034867397763 0.3413134108741133
1.399136570187451 0.1056755453816388 1.202172619834064
1.916367557183841 0.6069513407391729 1.076047692891932
1.563650209512345 1.69073098295817 0.5470219094720694
1.455533679918496 1.331211239559711 0.1736900210881915
0.9976879518926486 0.004709360479361879 1.096908190139681
0.3631593581056641 0.4700040943556232 0.4400550591068734
0.2925903346702157 1.484521101977216 1.51459777218405
1.234562523701378 0.8574064388964839 0.03841407102294891
1.094667881169925 0.5409119800503642 1.883332430183292
0.2145579902417389 0.4487055313484699 0.7186545572767691
0.8074942078887252 0.07737054460645909 0.6657898744145703
0.7694901778834917 1.94707002702212 0.7765641348750471
0.1036299140528866 0.6159413719305007 1.221403792254194
1.374852192937947 0.866519089676379 1.917425026925247
0.1700083595639775 1.519751253558597 1.202416677254092
0.8793180556108162 0.7978654895480405 0.02810622597796597
0.5209206414323765 1.127748150319722 0.1315741952910864
1.138872703435688 1.73769563355286 1.660696242215368
0.7671498264148904 0.2347945031415578 1.600201086502689
0.7759400262134465 0.2811372787651607 1.658052821713889
1.708704664822561 0.3980993256111207 0.631960224664571
1.96089152262737 0.8007085471105564 0.8077231200896235
1.823048717900046 0.9288638002026194 0.4365015980133766
0.3557315080817434 1.562576966753854 0.4819022613450163
0.7911066278826896 1.971088484818707 1.115545288687884
0.1168523013990148 0.6382145184437291 1.298599075334939
0.9925774478444764 1.998839168546964 1.047594338906103
1.288565950600598 1.813405077992565 0.4949238955861384
0.856887841881651 1.350835167373863 0.07456302454869357
0.5497523952182595 1.060240162910373 0.1091306396778272
0.5553139988147717 0.1267271136133162 1.19912013020225
0.5573373562221879 0.1454138993820976 1.271537070092329
0.9402602910227811 0.02514910657108982 1.214701892754053
1.874503380821652 1.434479009032784 1.215573253539001
1.512434690534554 0.4292025257209966 1.641561323096605
1.731587724667227 1.661519356821056 0.835162074548101
1.490097485791362 1.441858717466814 1.751375623918934
1.446470514157462 1.399280667759581 1.800774018273217
1.577801440153163 1.796427577272488 1.178461788394058
0.3752195167335379 0.5114705739536833 1.609088127955375
0.08633480722030207 1.02993490818155 1.405363807924437
1.129749177372316 0.1003763842070899 0.5830557580696218
1.388008733266462 1.80412189255411 1.450374516179759
0.4133246134384102 1.808493878480252 1.046364202384702
1.718483610485057 1.475162449370708 1.507938921694711
1.022162419620026 0.2841265709264162 0.3021217436378931
1.012835570385193 0.3371582422677198 0.2513505143665241
0.2466133261666149 0.9728695519902472 1.657017852482761
1.152319954631137 1.911616360883018 1.381777738994263
1.437597448410944 0.1034428914512988 0.9314885100510631
1.152918907269014 0.1227837568800657 1.455090618016015
0.6484995439717298 1.167848522073033 1.921018079654149
1.839016882345747 0.5778691725679475 1.343301959898795
0.1197606446406771 0.9479396674990294 0.5283344415197435
0.09870512588775959 0.9566659147371804 1.431033301443677
1.026562644599837 1.787827278983487 1.615323170700842
0.9850114371914707 1.748582121872646 1.662872649758294
1.616403346383013 0.5459970361651283 1.643372538578525
1.14239922331646 0.07159705102232561 0.6567939022563457
0.9290800649953768 1.332386002379058 0.05952676367617515
1.526489480019761 0.2463477421261711 1.393468043975876
0.182571570164821 0.5628000475136798 1.375055947350729
1.100944371396776 1.782820376685576 1.614005286401642
0.3796566846021101 0.405276375386863 0.4886508224626086
0.4837298906543529 0.926207479087094 0.1467592144924436
0.5766169439583296 0.9840735281921205 0.09418923866374351
1.411684964017573 0.8043195187352917 1.890070019523106
0.4076792294583295 0.3995089012788877 1.537183902533977
0.8124721249052431 1.939581290346354 0.7136081445055993
0.8187288721791309 0.05231726551947546 0.7372487621607353
0.2949462050818329 0.3563184610633393 1.297612537880418
0.66645008095434 1.562370817104298 0.243373595772605
0.1405742471701541 1.492411546350756 1.137543609060218
1.348741136461871 1.929646142881503 0.8810980708111619
1.261239374160726 1.93279242890242 1.24829875950241
0.06401214592189275 1.347817669088869 1.054310276079631
0.6169422106358997 1.33420626602973 1.861146271985169
0.6990707138067385 1.866249158986725 1.398815695862143
1.010540611877349 1.128464150341784 0.008341864563087054
1.944337165162353 0.8063012932287954 0.7340899973895407
0.4801212561175274 0.2165356096367727 0.6595449505559376
1.904494698405951 1.06649953139091 1.421268504496025
1.908095913113298 1.380594904866587 1.174669204430888
0.3599480708835654 1.658891982260974 0.6047850157869328
0.1302865862843919 1.026310317495147 0.5071447015639903
0.02064620259330074 1.067931754570909 1.190398046801945
1.877799583996469 1.154679966576809 0.5466326012212362
1.769598767398412 1.606037043921255 0.7989108689808644
0.4765691871614691 1.851062532940571 1.041385374179465
1.772587772392605 0.8039809541809224 1.603891271360674
0.6179049973341946 0.6466030850794009 0.1461182579171627
1.414946722569868 1.208458791134638 0.1143566463710066
0.9725573487107586 0.4729287354049774 1.849377879938265
1.57308514338315 0.3811447654058399 1.537207238455442
0.4547392673460684 0.345105201995177 0.4767376021803976
1.751074053245347 1.136447264430587 0.3540356739176579
1.317524894038119 1.823090982104049 1.470849420563596
0.4203177708374467 0.4499047270574714 1.601135345724586
0.4136730319527141 0.9335958451406132 0.1926517636373463
1.938784418506693 0.6751964284813169 1.114832292922148
0.936405126101905 0.01189342082991962 1.140003857856443
0.6491280827975305 1.619445554449726 0.2977350195324168
1.517161429081324 1.829721095856833 1.210016569252758
0.3078895371130065 1.368804998231813 1.620456267952532
1.739513921723174 1.406262583671562 1.53672141068353
0.2309633012393867 1.043980018421363 1.637689825807997
1.152230153648403 0.1608621345745832 1.52218159976148
1.445417967783987 0.7356613810764856 1.855410970540355
1.525148603406625 0.8740106514736837 0.1583672841446897
1.087121848689926 1.479244976619766 1.873346458094134
0.2617606730825059 1.197616731224203 0.3550578911773039
1.589341011272096 1.488359658265848 0.356430255052922
1.251416112046305 0.1641442274546331 0.5120091536656576
0.6387764005157796 1.920734202667918 1.147533180041429
1.707127915758435 1.388147623047884 1.591025831480663
1.458541865445421 0.1420161381106891 1.231523325760791
0.8465653446877521 0.2899096184208725 1.687189534654029
0.5155740229753627 0.7248134642505767 0.1695761062409409
0.09069475356801804 0.7626487880814367 1.341801654489942
1.997467115243426 1.059358669858347 1.039190589694548
0.5971586727976195 1.506569593947171 1.762303162518707
1.502365904515903 0.2224680730366687 0.621750610664594
1.742865471510529 0.6640749915340708 0.4209444932265954
0.4159031445414285 0.8214478228104994 0.2081982675793782
0.9499229232585114 1.992526747334884 1.111278669159293
0.6390723464192662 1.672093334494147 0.3534539624982268
1.162627505875662 1.476162258153548 1.864188520082728
0.8946338007378093 1.952475838072009 0.7141893250033085
0.1452240761439352 1.451400884644389 0.7438840861284219
0.138204107532418 0.5672980592339661 1.264720362237799
1.973711803493096 0.8051010125151067 1.11789702462567
0.5921165141287027 1.398393711046609 1.821531200230393
1.113084967981517 1.64418598373496 0.2435370409755405
1.524810243879886 1.835364008348217 0.8364726889014095
0.9509235416279416 0.5521756945991645 0.1072262925433373
1.952376861882576 0.8657991603917564 1.273803666153579
1.983679660272081 1.149224737226231 1.100530113730994
1.517997636985365 0.6250735695872387 0.2311641138347388
0.757977332519552 0.05317895639159353 0.7879742001407928
1.090445142991947 0.1755662905924792 1.558684826088665
0.005942908172310801 0.914885101076368 1.067867165612666
0.07835287164727855 1.064230031769254 0.6173238002983426
0.5771672124679936 0.7263257218336132 1.863895145985912
1.00459898785749 0.4571469735699647 0.160184876888706
0.8709839439592987 0.01399935925161777 1.105629511631373
1.989156571082914 1.141160708334811 0.9594668986394288
1.175604222963541 0.5373897557832745 0.1310034989580725
1.91699678686641 1.386471213881473 1.098776989818783
0.5010949064155437 1.530716886693888 1.68515202238148
1.813995907799967 1.431528548551589 0.6111635641174226
1.188967751018104 0.1288539944129984 0.5467938371723398
1.821370867543355 0.8102309629241811 1.537901115929678
0.6014452838099653 0.9808943270354998 1.916945533531438
1.804020748358168 1.545158605292813 0.7626126977179156
0.3505686675990858 0.3550272832736928 0.5971983873236602
0.297089390192681 0.9957165498312671 0.2887347002173134
0.532201107932164 1.838848785249721 0.7216173280084182
1.655418180895142 0.591696908616512 0.3646138231604418
1.005293949937148 1.316185784972116 0.05131748014647719
0.3185021164378988 1.650901822598983 0.6655041823315287
1.944918243974053 0.8712050167891578 0.6990990785911241
1.272697139719722 1.863778335270315 1.423701849779212
0.4984582666833139 0.1660054177730327 1.230019404741775
0.8075865339624607 1.168881253743618 1.96667273687707
1.292850554988533 0.4923328876773088 1.810254685582779
0.2650038657552694 1.104524169004616 1.669966701216707
0.3535146997781816 0.4133148809876981 1.48770618996136
0.5160322457508525 1.86876701402866 1.104971844714488
1.67921776599844 0.3439748678175498 0.6709190794088984
1.07374117617736 0.373988563485282 0.2236805294926846
1.467361960467417 1.8673979793702 1.170861181350671
1.593538805857177 1.706605760410532 0.6147468555659927
1.239857833230419 1.468022768887748 1.850542713589773
0.8645961156548472 0.5573237359358594 1.886399183967618
1.167301418260275 1.10959840991932 1.979795092859348
0.6332202644162654 0.9103229201819861 1.925975510972315
1.063951775830681 1.825480244166086 1.560796341695987
1.7846275236743 0.8632406384547374 0.3953046005446478
0.3986214706375097 0.215865201694126 0.8467796276351773
1.717308113378049 0.5090585832310643 1.494414396820051
0.9752246710660177 1.089542881758126 1.995674773910971
1.302328949163204 0.04848205054087906 0.9433360930134314
0.2820985720920492 1.135224746134201 0.3171150844829956
1.580621714854506 0.3012289857541474 1.417848649500312
0.004921135136271682 0.90315710549509 0.9790355900291788
0.9065572610567585 1.980168824800243 1.174749905374783
1.294837273758539 1.953163838987379 1.067451301317872
0.4990764273898413 1.619328938850949 1.604571947666473
1.467778715826193 0.6685356038959211 1.819337797941335
1.989805873428627 1.060727573529546 0.8711726165001938
0.3342045356068669 1.695441588048701 0.7296716862668056
1.090847110703256 1.130548116647685 0.01272901809249305
1.144270350649045 1.343449008662729 0.0719758384760717
0.1666124853506258 1.534763764806813 0.8603827866050109
1.861566561515489 0.8189569759009427 1.474264149502622
1.943787392260801 1.325446838350119 1.057876710492805
0.6357901409504308 0.4949671258282591 0.2175084827444304
1.672640654808607 0.5607790186623336 1.595516145080405
0.829580511680116 1.798417508185868 0.4225169434320528
0.5745068730971151 0.4729356989940503 0.2643650215198333
1.560095223857298 1.754497461252163 0.6579080223444518
1.71572854688956 1.203163812675397 0.3318255374630402
0.1461995092055406 0.8910283850977072 0.4909323138670786
0.661418764812411 0.8388793427751746 1.927039848655001
1.589405145599884 0.8788270521875555 0.2013018773911996
0.3346790773113548 0.2540440859778537 0.9700359520739616
0.6947307774626792 0.5113520567157703 0.1826665984461715
0.7092265206172966 1.798622389860048 0.473072052267198
0.9822726224159292 0.5482797286015608 1.891983484427662
1.429995473513666 0.5516883637137315 0.2163415479125576
1.058353506835702 1.373294484438648 0.07412414648201382
1.333015786753753 1.767772013147701 0.4526183949017785
1.913263930130832 0.6839500457622431 1.257024162965855
1.812031466486408 1.202070240557985 1.547514853969069
0.7873635293281331 1.92548528558813 1.313468846139564
0.1408464237520848 0.8184816735694352 0.5215585411042803
0.2628162018722242 1.376094978307949 1.56134892452863
0.04239450038279613 1.115758417869622 0.7361976198075399
0.8683082581282427 0.009114846147984856 1.028353077407062
1.832367349809328 1.482759853901077 0.7277730387474336
1.679157877610062 0.2660522813603986 1.008082300657616
1.665787443991086 1.38033617900486 0.3580720676245667
1.225246389768081 1.899950547509563 1.37330024904048
0.980541474645623 1.957106746163048 0.7109186234981291
0.2601290219669479 1.062133193619194 0.330126577542373
0.9425791137239108 1.732070584398109 0.321195535313534
0.4945316749619784 1.751274287840954 1.424368609598218
0.1405864910563672 0.7511878398900425 0.5533447306628867
1.316767640734621 0.1705552440680799 0.5399134226686684
0.9218420605196405 0.3026750791667571 1.7124810813496
0.5451021048116682 0.6648294182747521 1.825062777065591
1.425370741428127 1.675694977482776 0.3979235681896885
1.979490186126831 1.051373044627427 0.8051672882523728
0.7069898635291127 0.05965258424450359 0.8271075547998942
1.262315260260777 0.0387089183262912 1.084321767823686
1.400176285956625 1.893419232768187 1.204110300273812
0.05489354206747521 0.7481732221483259 0.7917764251313498
0.18689774335952 0.4617015709134855 0.7784158816856456
0.3049470194529242 1.162111878959214 1.700443497316478
0.5727630290616134 0.1350500032089509 0.7366939542764804
0.420992722205294 0.2311109701056572 0.7287801040319859
0.2416745048175692 0.3492219193470182 1.037819744815932
1.919773128948189 0.8765788149038308 0.6274619451192724
1.086308215212422 0.2186200023556072 1.618058404415064
1.758360786587838 1.484208430410024 0.5636158649930827
0.5759889793802034 0.4047932732641091 0.3173993796946089
1.879678515848265 1.121857597976034 1.459691673375215
0.0757634612489001 1.325103991169828 1.200235399874336
1.633137312114563 0.2261036657562897 0.9851135009994229
0.5558781859569391 1.880541216348282 1.165538456568218
0.630134971562311 1.717900040171567 0.4102378504342189
0.1514582517190113 0.5820728811926841 1.3245209157969
0.2652116473744949 0.4436287011633957 1.387991049737963
0.5803168214360397 1.808025626191832 1.413473840826416
0.4449208316773053 0.2096084135054177 1.259168394857017
0.3061321020303973 0.4289436368332409 1.438682083351941
0.1874884222699311 0.4175000278124644 0.9772246085409154
0.9932753539329873 0.3273788656767069 1.739956477636976
0.3010279617490702 0.3917072485496421 1.376055871216358
1.5573139720906 0.4233208734609633 1.597362805610437
1.06322960359196 1.187245766637574 1.980276002004492
1.508781259343611 0.1779011007065499 1.255528921887968
1.495039560444812 1.443732429318294 0.2529810144541894
1.125066418114308 0.4800031604038424 0.1550374695466875
1.474253287766137 0.3490521413279921 0.4072515674138503
1.179128407644742 1.927726574705069 1.327469717929244
1.548192622028114 0.5666830613084333 0.2846530353759024
0.7503874360242634 0.8943101053385665 0.03743924136088228
1.570757203939579 0.5211579209005157 0.3329569148587496
1.320088459360496 1.449265026015577 1.834088912876467
1.068723913584319 0.430282035198188 0.181038178982844
1.254213538060324 1.655725305328569 0.2890852364603701
1.748792771013777 0.8048737087655898 0.3665687752039581
0.5764737211593158 0.3425580601421343 0.3767860825949972
1.243843056010324 0.03050959611473014 0.974921706399315
1.031696096425723 1.861099742548461 1.507447131092832
1.639131167861942 1.317918261719284 1.700313736216004
1.301833195942728 1.060579308578779 1.951434111853846
1.632842723136378 0.2836933352647091 0.7060359718789783
0.1436932562240681 1.27608864520086 1.436478889014136
1.195443402923031 1.052015820431895 1.979334585664502
1.023264514176917 1.937913549021512 0.6539119520382379
1.368906133259105 1.927838035207371 0.9450014066876165
0.1017969736487877 1.308926327688553 1.31272327625936
1.884046539537442 0.8804706419694182 1.451856668093623
0.1193235305038517 1.434460686642466 0.8111803298436384
0.1097788109608061 0.7434359120502967 0.6235944961080127
1.523807562971243 0.1484935077960648 0.9762864867917562
1.510923341128838 0.4411905143233553 0.3467854118227697
1.425629798717454 0.6109441749037896 1.816991333737664
0.3809466745428454 1.734957317110891 0.7232135800556683
1.650405843133774 0.8845207920224122 0.2492425213543897
0.6421882219617109 1.225336847496728 1.906197570432251
1.523750567613562 1.312465110697991 1.792496623034423
1.801360207855805 0.525928544274195 1.364798673423188
1.9590096428303 1.267733939733164 1.09283879831977
1.954069520957978 1.129966099994365 0.7300737840978223
0.5250406990864712 1.79590359933907 0.6245654210986343
1.472851363599014 0.2439129137505196 0.547513640040582
1.163615653594734 1.272533805336665 0.05186749720965433
0.08710038311126622 0.9053029254843987 1.397047545720395
1.371158860850688 0.6230594289797593 0.1513794099063148
1.137937296625743 1.187206483693954 1.972587803060745
0.8669328355765559 1.965802189198669 1.222529236486718
1.851376692427903 1.419640819188128 0.6852631091504527
0.001443204981013135 1.029615223997037 1.044802518110196
0.02644401422309317 1.004957177335925 1.228394765594169
0.1355891388468451 1.483014325687466 0.8603897414186783
1.181550349999956 1.123362064244657 0.02438672030348499
1.799773912083722 1.303667960403678 1.517829565952514
0.03910106668692492 1.171274970066828 0.7824267374275923
0.303346842570694 0.4051794008195391 0.5989229088636749
0.5240807127998363 0.3334066648501645 0.4262804190157816
0.655036559899344 0.5288399697922427 1.81179335481916
0.4467805115008221 1.509522797849727 1.659040754442466
0.6786888765596986 1.832574582870169 1.451196992357104
0.1136350189600783 1.456538937604262 1.077002070344055
0.5549482861632982 1.697759843489014 1.561302211669614
1.335576069846487 1.912659986948886 1.233324772728584
1.737586174130312 1.541316758001626 0.5963382564096287
1.368223060762809 0.2099645255486077 0.5098411210323414
1.049616284821014 1.710485424516903 0.2980393986628624
0.8671881861114521 0.009730160855142223 0.9584468079246464
1.013718373476385 1.258277139100963 1.965973460115227
1.026310201404875 0.2348437969790454 1.643306892766268
1.228774717117586 0.4921650645900706 1.830521406819211
1.969144323008757 0.8770502080795117 1.213641357996541
1.390743659875384 1.122382007256138 0.08767218798989296
0.08400504201541104 0.7392086655410981 0.6951375444270709
0.6523050614858152 1.933320576973269 1.089559646771869
1.889919377577176 0.8811537765779817 0.559637562238813
1.583378335983703 1.761680285980073 0.7180197541418906
1.381452861708712 0.5602440546756418 1.813085741386549
0.08500781206165287 1.394657100208754 1.083875319770561
1.402981912261563 0.08519649962713471 0.9727945943686295
1.389438508781725 1.752979201090615 0.469566242964491
0.5735936247844953 1.449170680194567 1.785126297629321
1.464517933629092 1.864825780088108 0.8094758297959187
0.6348474288779496 1.771586445132157 0.4791180964064157
0.7510995592267977 0.5140882145801571 0.1621824140225951
1.422194587472517 1.397039674972524 0.1850698024943341
1.299538088781747 0.6255990996542758 0.1224460704952149
1.320945129198551 0.0607332967526002 1.12154128604917
0.3970227897197631 0.2556747744116782 1.287051288858902
0.34835433539149 1.213205572112278 1.727943206450345
1.276666074225086 1.941792067969316 1.191006764495289
1.453464692737925 1.259883561953142 0.1474565661113526
0.5842159136586331 0.6065040307822673 1.819929579753452
0.3396091026549607 1.010871287790764 0.2491566889120046
0.4162915677082333 1.787975013601437 0.8040922563773889
0.9946229756831549 0.37279499619088 1.778835650703213
0.4165591172611751 1.46511476730427 1.665781487865527
1.392776870383185 1.116105128803093 1.91227513895623
1.067863774043677 1.885635143473484 1.459396235092594
0.5645546311860774 0.6631776302277073 0.1651718608003897
1.064679407729255 1.917513577846084 0.6075902540916309
1.702112688809986 0.8919735617899341 0.2961761151682485
0.02128437446940346 0.8185514216868883 0.9041243629987064
1.748087263785448 0.3371087782356713 0.9693295929306873
1.297408452812649 1.110259383208594 1.948362315051609
1.938369130321909 1.048184767197473 0.6577404442984383
1.725686125977102 1.254652584924107 0.3608351483726475
1.623122051383239 0.3525223585283843 1.438738661248696
0.6137289332108673 0.0860989968487148 0.8751816543906313
1.847003512560798 1.108686506033046 1.52035785101793
0.8457506383966769 0.841063077771345 0.02483530150161317
1.035739641107316 0.5560824549436201 1.895354617592738
0.6475874823663217 0.5978428790500998 0.1549703747889192
0.2023392879269681 1.600349621362084 0.9424003424875915
1.342607535836591 1.394205154453488 1.852773341861881
1.700946804817681 0.6111844122384504 0.4020902948358127
1.682211138268728 0.5211245525352796 1.552509066565925
0.09377696136502167 0.706408670962104 1.304243218101815
0.04037779404165853 0.7964634878216874 0.8058399885611512
1.232734655443287 1.894626335566716 0.6185838232767722
1.132111984356894 1.913984165814486 0.616360366711568
1.2287189715184 1.961514225788775 1.152243310767268
1.441296480434863 0.2649930492173868 0.4851969321604153
1.97701005209442 1.13982600880919 1.160934910342506
1.97026456020204 1.206257391772116 1.126667168419073
0.05837576153352586 1.234938325274245 0.7588614986159086
1.604153498530093 0.2050347125889747 0.9449659921016573
0.869229456932138 1.779653488786395 0.3875953115064034
1.914553234187327 0.8862519414505581 1.388141418833049
1.551571255222685 -1.316538967752182 1.831469612302546
1.996918126174203 -1.317918455311354 1.039259815759071
1.487156981077429 -1.318831828607734 0.1294023574819188
1.007634111439941 -1.191227276903767 1.998242198748568
1.834190509751048 -1.180441349499658 0.4529279868409852
1.869830279343775 -1.326182025068779 0.5125663284167263
1.996938264607385 -1.179851466837645 0.965456116941118
1.870473862052113 -1.178226661256061 1.486953635708398
1.487490823036059 -1.18201750206809 1.870477499669327
1.418689157747558 -1.180464679477957 0.09453645662316279
1.870477499669976 -1.317982497932715 1.487490823034787
1.117265476320041 -1.317982497931959 1.990771006862012
1.125658327749578 -1.177384153633837 1.989412413265422
1.039168988720169 -1.182017502068046 0.003082666266870926
1.677230349428804 -1.182017502068663 0.2673763354985343
1.733782376349682 -1.318674870485539 1.675904716896108
1.68592482071809 -1.3228642379722 0.2759848460511435
1.978516247268801 -1.317982497932028 0.8053610167363594
1.34531632006952 -1.18201750206808 1.936020843287467
1.67723034942885 -1.182017502068047 1.732623664501366
1.345316320069301 -1.317982497931931 1.936020843287547
1.270812476151505 -1.182017502068001 0.03977139037851185
1.956879388035668 -1.174937963223764 1.280619898416861
1.960228609621497 -1.182017502068033 0.7291875238485181
1.960280960137014 -1.317578174669572 1.270728033100865
1.784816752300323 -1.181118541206201 1.615887984899211
1.991796748416587 -1.181985838293536 1.10822792448186
1.906042197196056 -1.182017502068033 0.5823088259550195
1.550461483397657 -1.171644821557668 0.168824554436958
1.937168459121936 -1.315295385257701 0.6572875959480542
1.776796046301409 -1.320812689261704 0.374241687638091
1.345316320069512 -1.317982497931967 0.0639791567125334
1.039168988720038 -1.317982497931784 0.003082666266854051
1.194638983263695 -1.317982497931967 0.02148375273120517
1.554284928996229 -1.317982497932002 0.1704539811061894
1.614599836984157 -1.319345590116969 1.785785103899519
1.676026642127698 -1.319782572999397 1.733565519663467
1.996919349152771 -1.3179177478191 0.9607700265613646
1.829546018894066 -1.317982497932034 1.554284928995842
1.194767899509381 -1.192531442239629 1.979164353001909
1.168799143977058 -1.116719503133285 1.976597746335498
1.089625773462366 -1.105254102120053 1.98540136278483
1.240525109624098 -1.130686738993038 1.963281899232099
1.41693123757458 -1.317029415124679 1.906463127017626
1.379670179727931 -1.38374971687761 1.915402407611276
1.701218746069687 -1.386738484515057 1.699710552309297
1.579353279143765 -1.385891946805039 1.803668561497153
1.306302238279608 -1.385404258853599 1.942255074546808
1.754077530553193 -1.38538698487964 1.64267989095661
1.720294595631117 -1.453013340601268 1.663295770409038
1.340645989016628 -1.451715830321303 1.91829790044662
1.265956520213907 -1.452738200025456 1.942424719331018
1.844752962207507 -1.385702209502637 1.517665281024085
1.88313318138508 -1.385329281259778 1.449178995023565
1.854722584614405 -1.452660138932359 1.477889287846032
1.990760374846895 -1.3856240367882 0.9999833112705374
1.890134102016858 -1.449657371577823 1.409631803454367
1.987695975703167 -1.385314014565571 1.078401384183682
1.978475322916939 -1.452626307678404 1.039097594289278
1.518171458107312 -1.38681716445738 0.1557373610583113
1.978503092168626 -1.45242930184929 0.9605782246816852
1.972372452458284 -1.451779331367278 1.117375104401384
1.413238230034375 -1.449416806970383 1.888519612803113
1.664588068207919 -1.454090672510939 1.718797396343156
1.451236168839693 -1.389484454625099 0.1185636682954267
1.478797318657818 -1.454665959042203 0.1462641082539523
1.410165884466218 -1.457362214777959 0.1118756511037293
1.545959577841095 -1.451892613037105 0.1868779229632105
1.813714359086851 -1.452507180549128 1.544848404275829
1.230717259474858 -1.385815628062602 1.963495542986252
1.189599875078288 -1.452649501242605 1.960721118231727
1.97857145358521 -1.384071548749879 1.156277733679298
1.960339121260637 -1.450087115939951 1.194200716299347
1.951124249508324 -1.517014990999389 1.155131094816039
1.82110926667701 -1.518841472960863 1.503491643022381
1.224140008424758 -1.518950025327744 1.936710809428158
1.147143369397526 -1.518132855382531 1.952078568557634
1.682075825076426 -1.519880118271859 1.679659687349397
1.372983653201191 -1.516825778562338 1.888643459627817
1.963200862638278 -1.518782425475784 0.9996744723787179
1.960230087936815 -1.517861976603893 0.9212082509985235
1.624398669963682 -1.520047180869519 1.732939848181289
1.444383052692198 -1.513799077953273 1.856115499772645
1.936018438837437 -1.51452635801954 1.23215358724182
1.112083356290391 -1.451105235283937 1.973136170113964
1.069226657648021 -1.515864307379454 1.961521627386782
1.103952673783771 -1.582067604305932 1.937509972098283
1.923883768214728 -1.580882393336998 1.192238457674146
1.639868154080877 -1.585001118919407 1.691623449368135
1.402898930939375 -1.579948310577914 1.853701683139192
1.941957521528158 -1.583390652632582 0.9604184339148908
1.936051429969776 -1.581538060720444 0.8821431599555409
1.914879757630902 -1.646040278077306 0.9215963826238084
1.906116360448524 -1.643064514368782 0.8436240783510648
1.924475280557511 -1.577451111887797 0.8047534252245209
1.891725735012835 -1.63788064413814 0.7668180551183235
1.438180701867342 -1.521798860629067 0.1431901892066219
1.368146729771643 -1.523908158262467 0.1114943409320862
1.395024949392834 -1.587354611753208 0.1455135136902215
1.882133593613288 -1.706348580810512 0.8834397331371519
1.322412299309388 -1.587564153705205 0.1156353968032631
1.349586407717795 -1.650926488224492 0.1532135484202974
1.276871811364285 -1.650561463007558 0.1265628159821084
1.421049532375715 -1.649577271891653 0.1857179265918867
1.374421362819199 -1.711913390618362 0.1959821751776509
1.444656505400199 -1.709234281596782 0.2309847421464442
1.396763915882975 -1.770148412517988 0.2436773016706268
1.46570014700944 -1.765957418253026 0.2810345518558917
1.416476160980057 -1.825272099603723 0.2960045321503567
1.34628452098631 -1.827772079525361 0.2609015933948839
1.364819282875294 -1.881115797886865 0.3154565459373806
1.293529903050117 -1.881749602479485 0.282551300940338
1.433804827318602 -1.876753501877513 0.3527029895949213
1.512187407551557 -1.703537871760552 0.2706390067843468
1.888125638164999 -1.708007001734906 0.9617581747844709
1.852643987681295 -1.766905299418897 0.9237953957847628
1.380915103185824 -1.930655411588039 0.3742109821666325
1.448779874643639 -1.924613231620889 0.4139167193675798
1.394472630998732 -1.976085138999989 0.4368022422662668
1.460898954019664 -1.967542826260824 0.477788886880786
1.405408182922464 -2.017124566627713 0.5028439837478083
1.337747073883751 -2.023361792866176 0.4634942205178237
1.347592212922327 -2.062355350398401 0.531749598831085
1.278816419558473 -2.065813000100282 0.4933338840498902
1.287938467273942 -2.102296641517094 0.5633286431163411
1.355376309551377 -2.095602887122522 0.6016742088444438
1.294486119086135 -2.132920632024939 0.6343101270061348
1.361034676226311 -2.124140363092868 0.6751422031503141
1.299318967270869 -2.158499455736597 0.7083891381340406
1.364852455048731 -2.14707939606947 0.7507386046886746
1.30338417110928 -2.178284387836363 0.7849508427833203
1.362723322710084 -2.165634074240905 0.8266620836309665
1.30251227042777 -2.193094990438508 0.8619486861691399
1.361409968749692 -2.177447887652982 0.9039622460884863
1.300780738753506 -2.201785863170198 0.9397122079998239
1.363153505081817 -2.18156143409866 0.9823131052234165
1.297803893941773 -2.204459522222769 1.017884663580904
1.359516179345074 -2.181169332082517 1.060595311519292
1.292651297440226 -2.201373206339308 1.096146972735583
1.230127946564014 -2.221706864187458 1.053168583780346
1.236218501619975 -2.162453018534395 0.6658887783089513
1.223895604521611 -2.21573607550662 1.131242488322092
1.285565656988583 -2.192477493006035 1.173748181935059
1.216041719446134 -2.203966792157054 1.208022438502045
1.025768617767849 -1.578876019422218 1.944021473371942
1.059891138248072 -1.647455897918887 1.915664709797665
0.9818319334828989 -1.642113114364032 1.919737585892177
1.01643797886059 -1.703724434513193 1.890990421035301
1.277005191625178 -2.177649088818817 1.250470141586411
1.094636439043925 -1.706723289449712 1.884560784389247
1.206694177986761 -2.186221952263047 1.284193548285577
1.266893787939763 -2.157068801094995 1.325567037703838
1.334372865684647 -2.146109587281818 1.291860230719168
1.195857851942935 -2.162861530755402 1.358222734481221
0.9381235120632582 -1.698114761423246 1.891832081075357
0.9034325805300298 -1.634962224709557 1.917866449459604
1.255251194130512 -2.131191566001286 1.397929958539376
0.9717272325309114 -1.761578507741652 1.858771262348982
1.18361508428442 -2.133874372635213 1.430176236235724
1.1235425303431 -2.162861308866121 1.389129122492337
0.8601764321119485 -1.689928895715143 1.887080569383588
0.8257526472948208 -1.624837708833287 1.910568257799408
1.160684177682824 -2.233074165997863 1.088010108453523
1.242430102126198 -2.09927550357223 1.468997616854518
1.110815007251059 -2.131084167221606 1.459794219667187
1.05038982068832 -2.157443809114596 1.417140982487445
0.7830778647848989 -1.679217364373895 1.876765214509363
0.7487996284391497 -1.613694398020355 1.897008783778789
1.037413443686788 -2.122905694461282 1.486452343820608
0.9768527141262751 -2.146516988555957 1.442404218319897
0.7073036984382542 -1.666046283983206 1.860949687633279
0.7414600402607407 -1.732517007547578 1.836859860816226
0.666536824230507 -1.717958803766203 1.81842340410293
0.7013179428018836 -1.783523154351483 1.791291395428223
1.424417939780152 -2.155124373164114 1.024885367126922
1.429716989455524 -2.130997849117999 0.802045210154591
1.51366520608082 -1.91358397298657 0.4561209998011431
1.855936762570994 -1.767075483557987 1.002280960928926
1.817833417231794 -1.82435855293826 0.9644928975325412
1.818827163326568 -1.822502938387644 1.041981688104223
1.81193555325267 -1.822627772636357 0.8866064756266737
0.9638543142784892 -2.109247393973698 1.510281692159469
0.9033851160188797 -2.13014829263077 1.46476289349781
0.6272368882018626 -1.767260031852196 1.770382841145125
0.916568394231257 -2.164675226794309 1.395485014441291
0.6637648813667257 -1.830241767829541 1.741798783945968
1.024413086784524 -2.082962153489563 1.552791146860802
1.774623351124553 -1.878214271549353 0.92716118538662
1.766291780184816 -1.874656196107219 0.8496619000850267
1.524416758934767 -1.954719884446229 0.5221329186746095
1.575580510881479 -1.898648763391617 0.5020423138017229
0.7925163681331119 -1.556338276124615 1.929035738326747
0.7176984326956759 -1.541503860985321 1.91396461864132
0.5924450843518062 -1.700952133055915 1.794066221686399
0.5560030139872228 -1.747742244508167 1.745063309017121
0.5226050041359191 -1.680231839097592 1.766155716907887
0.8433359283595417 -2.145650278222002 1.416253465784832
0.8566182928598918 -2.17743842855691 1.34539781020365
0.784664681334784 -2.156107205156004 1.364143424078652
0.7982788411474456 -2.184289726365845 1.293957958351899
0.7268828898202575 -2.160213395195835 1.311317553846771
0.7410324204544236 -2.185670893927071 1.239699334588192
0.6698688096621264 -2.15804189921494 1.257824177369429
0.6855636331503148 -2.181053921767454 1.185117168203853
0.6559029498460943 -2.128979246406295 1.330140431426389
0.6005188621834574 -2.124683415959634 1.27448814614476
0.5859461289328208 -2.092711251680236 1.34408885210918
0.7577089658449168 -2.205813517910921 1.166479949984406
0.7030299631579855 -2.198484531218988 1.110389724414677
0.7760371418036205 -2.220291558129166 1.091514645668234
0.7221916916334179 -2.209987652272233 1.035302284449352
0.6501011873992868 -2.185221612465379 1.054142003271654
0.6702024878919328 -2.193811975699393 0.978726647331979
0.7432309608307144 -2.215639096206275 0.959865271870734
0.6921472472104743 -2.196515776128859 0.9033844311764645
0.766047333872013 -2.215391079240663 0.8847341588580776
0.7158000120531839 -2.193316324634989 0.8285804021467615
0.7904983492992028 -2.209267031640161 0.8104853030450794
0.7410147865107126 -2.184233369726732 0.754776285643203
0.6674580915460619 -2.165591878100584 0.7739305596104193
0.6932781626200677 -2.153714780168443 0.7013006351205591
0.6204075963891511 -2.131832875356344 0.7202136760638569
0.533393371761711 -2.086120670782581 1.288410260521677
0.6474989599921224 -2.117311945631158 0.6485558283896862
0.5758513090799612 -2.092803685243503 0.6686695967304117
0.6042879637408884 -2.075898639279815 0.5983740272399993
0.6772503224812401 -2.097653212437947 0.57891013179469
0.6348888816978275 -2.05294084181665 0.5288525964892661
0.5631643506038484 -2.028705012344696 0.5496744298111771
0.5950532644504751 -2.0037344794803 0.4824070365525195
0.6679665434858508 -2.025567249786513 0.4631115341024254
0.6292672641872952 -1.974892461600572 0.4194070636741343
0.7032667576960655 -1.993517954694453 0.4007250764809428
0.6655991994884242 -1.939685364194086 0.3577304280649071
0.5926895749504268 -1.917985170829468 0.3771886086479614
0.6301651515560556 -1.881574596794484 0.3185781676814801
0.5584552158988983 -1.857868256760721 0.3400497094054781
0.5971833293923879 -1.819544339289198 0.2835099613642705
0.6700860168643127 -1.841396496996528 0.26419639368118
0.6382353201760514 -1.777574080600365 0.2313701112300177
0.7122057606519839 -1.797698869430128 0.214378956351692
0.681357796192285 -1.732216540730757 0.1839519905065481
0.6084377083321451 -1.71053292548874 0.2033894324799601
0.6526565359110335 -1.66372005147473 0.158460792973718
0.7266047141761667 -1.684020598191511 0.1415821891207131
0.6988616960679073 -1.614215441090736 0.1187152365007191
0.5498460499294853 -2.104891167095787 0.7420804124198495
0.5222340470200418 -2.05191199305169 1.358715555242616
0.4695670301977063 -2.042389890485138 1.301262553271512
0.4597180994240982 -2.005766766101105 1.370016301218161
0.408703958540244 -1.993854754738346 1.31152703768241
0.4006018587903699 -1.954916645854346 1.379228678651679
0.4202845164200832 -2.028106359047289 1.241827318779072
0.3612291499015807 -1.977221752891442 1.251237583147985
0.3746907003765189 -2.009149563364423 1.180776713788027
0.3175867101968807 -1.95597042721502 1.189520072282398
0.333067008391407 -1.985636513632157 1.118487571142031
0.2780460209449095 -1.930231950815602 1.12675545438411
0.2650370443086263 -1.899075109389349 1.196293036383372
0.2956703613294197 -1.957712343373736 1.055344368517723
0.2429751609891364 -1.900355902685496 1.062853742630887
0.2627611554770305 -1.925580965636557 0.9916786421772339
0.2122366882455222 -1.865977753200453 0.9993899051386368
0.233384204933645 -1.888211241078173 0.9293838933653343
0.1861547364578692 -1.827588478510432 0.9363805336233958
0.1665409933124793 -1.802529589193216 1.007558917741798
0.1432400414825654 -1.762695409042759 0.9442703756725257
0.1260866820915753 -1.735817582100168 1.016024659267351
0.1054212723270035 -1.694390168381397 0.9526050821193157
0.09099598394500452 -1.666073839792151 1.024377420628629
0.1252618276870422 -1.719783937933927 0.8811043248983471
0.09019071736316608 -1.650074057505565 0.8896015501065191
0.5808771061100972 -1.640686840976358 0.1804270672446121
0.1128024431529189 -1.674131598625512 0.8183605709876351
0.08048902729748109 -1.603142789203535 0.8274029504504355
0.1058577144741381 -1.62602219301772 0.7568603619466124
0.07637608549005559 -1.553886045180206 0.7663932019609437
0.1045350966288521 -1.575755146687722 0.6966418103347778
0.07787727893746443 -1.502607861055216 0.7069488852890444
0.05251975785933605 -1.479940690808655 0.7777198401487273
0.05690708078568485 -1.427917590447886 0.7190710468160328
0.03446806114578227 -1.40462080427103 0.7906188118789209
0.04180175214125625 -1.352084360230258 0.7327269164378643
0.06676282725429916 -1.375190127962165 0.6632570546152042
0.05432531681403541 -1.299053284507265 0.6786074536331393
0.03231380187155564 -1.275729244058185 0.7491585601382589
0.04855742768882843 -1.222248631592866 0.6934271813329946
0.07384535280641824 -1.24516001518794 0.6228870937918579
0.07065935787823197 -1.168817364286618 0.6398120621684729
0.09849642228484712 -1.191313506797554 0.5712259395877841
0.09831459279843224 -1.115748419769661 0.5889769597146655
0.126794294906766 -1.139752352907955 0.5252819227127581
0.1306224731380213 -1.063272331540033 0.5424898977958477
0.1643546913492713 -1.094591746694143 0.4731744188685869
0.1694694499031062 -1.012421027972783 0.4962389084037536
0.2043521226577412 -1.034925168291867 0.4337074324640344
0.2135425332309114 -0.9618789115090779 0.453675104603539
0.2514140119580429 -0.9869209381158044 0.3913881157047798
0.2613773525965269 -0.9132134336872588 0.4160381917505579
0.3029138874729712 -0.939695276045724 0.353639473657607
0.3147976530823859 -0.8668922808756956 0.3805436098271591
0.1815147836640808 -0.938130933532999 0.5174861286755117
0.02909532003929949 -1.199135668551846 0.7659980294597025
0.3579299016026413 -0.8942343022147456 0.3209000390050245
0.371862594288441 -0.8225719151811091 0.3498087728567791
0.4169556780213138 -0.8511229625590954 0.2922172454695005
0.4327580870904786 -0.7807361530787172 0.3232223007431569
0.3890901594361059 -0.7530002151824875 0.3837367603097326
0.4520299588990203 -0.7129203895465671 0.3586932667662226
0.4971929261341986 -0.741944181446876 0.3006686538522487
0.5182805345843895 -0.6760452806414924 0.3377898092253525
0.5647693895030148 -0.7064354424513195 0.2822870438236963
0.5872725052520433 -0.642261670128932 0.3215384038247998
0.6350703637073519 -0.674429112605139 0.2681909305434867
0.6583450444442909 -0.6118411008187037 0.310054269713956
0.7076619183049773 -0.6461227499295285 0.2584673218001791
0.7323435539562534 -0.5856926416658007 0.3021061967933311
0.7820959843217995 -0.6216910745130224 0.2531762362479926
0.8075271857315021 -0.5632563941759799 0.2990453398204793
0.857913119942727 -0.6012848900649495 0.2523503329382502
0.8838607853372578 -0.5449117740524413 0.3004556651307612
0.9346453464011252 -0.585030153084651 0.255994709732284
0.9608731861498853 -0.5307720128569395 0.3063284675380716
0.9135902591706875 -0.492461923830781 0.3529533093789524
0.4106196586979388 -0.6873830044842044 0.420264776261227
0.9876379395159542 -0.4806417203635941 0.3613020925229998
0.9406558336297808 -0.4450961942283227 0.4095695355318345
1.011298032190776 -0.434210274186315 0.4217617465737425
0.9641672641606415 -0.4029314194343384 0.469725698472251
1.036765528913537 -0.3940867094119993 0.4841892450922252
0.9903399457089727 -0.3648017717366709 0.5348862719392626
1.067740277030659 -0.3604424488329858 0.5482272495716961
1.018102753418759 -0.3337387530506405 0.5998280149017622
1.06707756879715 -0.4655483588281808 0.3834481186249589
1.091035429580426 -0.3309152661499184 0.6165996836662336
1.044018434986476 -0.3071153031502518 0.6698018385455486
1.116491271729382 -0.3075200270145585 0.6866929874193162
1.069873026193828 -0.2866629133086478 0.7409644471978127
1.147468203748983 -0.291393322172552 0.7564299564649382
1.098955432703943 -0.2727618842752493 0.8123474287063615
1.174979636517881 -0.2802799341070221 0.829632395659888
1.124553433770191 -0.264341048980274 0.8861453803715108
1.197807479458096 -0.2744281075224612 0.904440156560257
1.14549153004525 -0.2613832509927766 0.9616706604872918
1.071653937945838 -0.2540750900553382 0.9452342540581131
1.089718250264671 -0.2541758200649419 1.016877151007051
1.015191071700503 -0.2501216867296083 1.003548237893191
1.035441731827538 -0.2533824865519174 1.074144558354783
0.9631708006616178 -0.2524900747386326 1.060146147683413
0.9849880391938369 -0.2590954730981818 1.133726809571746
0.9095343681349866 -0.2609021372015272 1.116195470044048
1.067531713293226 -0.2627894855393166 1.144412145742504
0.932316623643292 -0.2706447166064346 1.190478842536554
0.8569466214680459 -0.2748971865518572 1.169440945748393
0.8798743635232199 -0.2880957834117593 1.245581166970946
0.8044194754314626 -0.295965927999536 1.227084230786088
0.828172127840788 -0.3117767534986956 1.300353661662031
0.7528557852630553 -0.3228165870290839 1.281514930036868
1.251587335462003 -0.2945012099714229 0.8459679420086368
0.7777310665495397 -0.3414073454653163 1.353632449512784
0.7031834386919864 -0.3550400853411877 1.333086595478079
0.8536117735636566 -0.3334590968342462 1.372187130332211
1.272480045193697 -0.2910700243765704 0.9212096019676921
0.7288600387501867 -0.3764150104384781 1.404144018174518
0.6551891724807817 -0.3927778752052353 1.382460092019888
1.323618988365589 -0.3135518192354657 0.864591155709729
1.345040553454022 -0.313335457321716 0.9399454334673587
0.6818166234765125 -0.4168246688950512 1.452303224112179
0.6091692296530151 -0.4357970213591453 1.429330663384695
0.5836525855614885 -0.4142092270271643 1.357922637316832
0.5389034677238567 -0.4598965025577273 1.403889157136465
0.5657104304169258 -0.4838396843827872 1.473699208912872
0.4967809944085566 -0.5102050690602138 1.446625226075908
0.5250810227754098 -0.5366093225248426 1.515291865221532
0.4577073725654843 -0.5653543176913152 1.487010262649818
0.4309702163884963 -0.5410526464917581 1.416651839449564
0.3936288389852935 -0.5978424448914031 1.454977514174552
0.4873709845927885 -0.5930901547572399 1.552884208298416
1.393443589534055 -0.3377815451199031 0.8857212511849778
1.41557288324878 -0.341377026575543 0.9587268746810405
1.462898840063953 -0.3686113431426578 0.9057731490993285
1.484330758013643 -0.3753841267700408 0.978302278089033
0.3688370753060894 -0.5764798189789655 1.384712786698365
0.3331902412022322 -0.6354255999670577 1.421500951833103
0.7844918322672008 -0.2859077858824525 1.155185154954901
0.3103469001600399 -0.6154434266161783 1.348879000595502
0.277038425006562 -0.6767575958343958 1.385641941636858
1.529749258816666 -0.4051357477932137 0.9253667759891
1.549004321771128 -0.4141807881995675 1.00070700914227
1.506288587635286 -0.4004974418301535 0.8516178255545698
1.593130312987297 -0.4467077470443183 0.9459815942758802
1.609925202651714 -0.4578393203220043 1.021741774130953
1.56405067494123 -0.4278318711154874 1.076722903652574
1.622956773912663 -0.4738572008500435 1.097607444203801
1.574720431771739 -0.4459374677261246 1.152249366164293
0.2564783232617431 -0.6587274316227653 1.312365596865146
0.2253065965221632 -0.7215604140299237 1.347277604500636
0.2482957409515852 -0.7414792174274193 1.419937281769842
0.1987138226387709 -0.7877432010773175 1.379814578208346
0.2242243260179896 -0.8092128149586972 1.451529358027938
0.1772360805110565 -0.8570242967220613 1.410645381589031
0.2050548807068151 -0.8796273057229069 1.480506321129984
0.1604028296761885 -0.9284281672698671 1.437799209659899
0.1909057277864074 -0.9522880586004193 1.506689311727857
0.2920716835491584 -0.5994410718717079 1.27497378020394
0.938484943699415 -0.3411220782866409 0.587499307551683
0.1489596168945138 -1.002233635164052 1.462970943774712
1.632495375508419 -0.4949216592591005 1.17264500949762
1.582280617202815 -0.4693473498253256 1.227003794252797
1.652757459779348 -0.4931698159565197 0.9665968381268423
0.2402774599109684 -0.6443525086879214 1.236670188972028
0.2781668338286911 -0.5871134375965021 1.198842363695408
0.1818642024360734 -1.026746577492879 1.529916716176509
0.1424948196934195 -1.077419273194085 1.484665615122964
0.4040780501484591 -0.9233155370914033 0.2664099977649237
0.226322288741201 -0.9776052216778564 1.572034862437751
1.638295582567152 -0.5207638087932857 1.246563027864245
1.132946105588267 -1.048412998924085 1.97040610777454
1.5861038710704 -0.4975191309726977 1.300424356642746
0.2197380658159844 -1.052828878897844 1.593561170450644
0.2665949881892404 -1.004412397835252 1.633879971535486
1.640370153047099 -0.5511813731951426 1.318713968813744
1.586236633675249 -0.5302197849839051 1.37181050470434
1.686376646164889 -0.5483804821775961 1.191356086420307
1.138840838154446 -0.3548967489864627 0.5763097927901009
0.1550503156737364 -0.8372179861068518 1.340104454489006
0.112227737309708 -1.053555225928794 1.416256964311556
0.5563093638062583 -0.5668018940337881 1.5799818681288
0.2286391121353774 -0.6339976206985676 1.159823181571621
0.2688155955309969 -0.5786739651955204 1.121205287240301
0.1083337212971166 -1.129270743261418 1.43629771256735
0.1338631669611479 -1.224054137459258 0.5008669529369505
0.2462020962360487 -1.063947129091134 0.3697833312997492
0.2623474318628538 -1.08031954723453 1.653511463304186
0.3107262079100613 -1.032509405209725 1.691085726025164
1.638560902829626 -0.5861146364071093 1.389225124297684
1.211978250706486 -1.056888582658233 1.958004802555641
1.178780004540194 -0.986355199021055 1.947907763916606
1.582585207724492 -0.567246263614456 1.440955566006586
1.528456613673133 -0.5135165213958729 1.422286269263268
1.52309005856503 -0.5527338942679835 1.490098733346397
1.255512323616056 -0.998058578445769 1.93340182803847
1.222164315713491 -0.9278384941822966 1.920247239057432
1.469268827865224 -0.5016052975045115 1.46871327746362
0.6832252325420436 -0.7084923367970626 0.2212682121587358
0.6121399875454931 -0.581837522262907 0.3650799151995437
1.57556016730442 -0.6084123642506239 1.507046151219033
0.2216396724039973 -0.6275584677299545 1.081986214267773
0.2641529872444696 -0.5742241743450368 1.043083724062744
0.3087939512674823 -1.10882481274379 1.70873391671258
0.2626951930010311 -1.15365770016031 1.668655204748914
0.360686034944349 -1.061826748029448 1.74556587993795
1.297094066852726 -0.9411861294373953 1.903531465301044
1.263845290716337 -0.8719131098021831 1.887375887675204
1.187482611280574 -0.860758779879838 1.901854502138114
0.08093681534614239 -1.105936050069783 1.366835713834426
0.07996127995396196 -1.18210006054258 1.385899406371306
1.229148784677849 -0.8049039478812335 1.86566756833611
1.15214280279261 -0.7950376184892261 1.877417687859353
0.1368591305681199 -1.646725331054182 0.6875950525098433
0.1382669555830099 -1.595303829762575 0.6282723775247199
1.19322040145011 -0.740572198761948 1.838539916634397
1.116045373798019 -0.7308844507634789 1.846789535694049
1.074190226519189 -0.7881617075450358 1.883855871684583
1.037506462949207 -0.7255580957936179 1.85061974721342
1.078690259963196 -0.6724708584627055 1.812568725500877
0.9957722249579484 -0.7843186524928626 1.884942375808804
0.3606930459918789 -1.138839598010449 1.760874486092404
0.4139236083712912 -1.092079533885499 1.794717301659937
0.9090179110981119 -0.6434312209977749 0.210192063955547
0.9859914765413301 -0.6291393740986965 0.2162042074137234
0.2193400146828801 -0.6250547400433681 1.003661882359113
0.2641495454439213 -0.5737836939562198 0.9645653281358945
0.3084655540085727 -0.5276582404702838 1.00157874850536
0.3121110318646262 -0.5282995511112132 0.922816908643314
0.1741182590919116 -0.6881323890984881 1.047160766050314
0.520356298830755 -0.6263875405160324 1.617292005703156
0.0552799931866147 -1.159052788679284 1.315012243380321
1.336466568331935 -0.8908851556655935 1.87053246750113
0.05705402001498583 -1.235505443118909 1.332630104847595
0.08474010944246679 -1.258636545806519 1.402771328191499
0.9633017937499989 -0.6862677651764554 0.1748580673127293
1.037582243464451 -0.6769671743849932 0.1813297637364237
0.2683004905060656 -0.5779747565558123 0.885991667058429
0.3200553715421296 -0.5327449427452785 0.847617307171008
0.3659128149108477 -0.485412400902267 0.8845043506807311
0.3757058650980029 -0.4923366302265826 0.8097290058086712
0.4244618272646824 -0.446139645003529 0.8497856818094918
0.9299856047672168 -0.2526038978996598 0.9827083842503035
0.173121654962217 -1.665241850037012 0.620729109361901
0.1772203123595422 -1.612594047887831 0.5623253011166994
1.000260426651479 -0.6677844252269488 1.813034412967646
1.04139810120552 -0.6162350011514504 1.772417065743032
0.03541563671888037 -1.212577580441794 1.26110643160973
0.03645993777772716 -1.136366521440284 1.242235383548971
1.516211964296876 -0.4188907420824362 1.206839573874239
0.0648302750247598 -1.312007608877488 1.348730041623933
0.09321061930223917 -1.335996461181119 1.412719793223072
0.4870806757056968 -1.725730213228584 1.71455897656314
0.4554537826814762 -1.656606061116753 1.733580894153607
0.4199582663947392 -1.700503325690313 1.67867395766905
0.3914333192063306 -1.630445581956189 1.696353182083483
0.359119835681188 -1.673580613571369 1.640196906263374
0.4158222590174573 -1.169507767368425 1.807624521313288
0.4708593573397174 -1.123115743908708 1.838993781765528
0.4706822811792399 -1.04612716703797 1.823564581877112
0.5271352413130745 -1.076142996606145 1.863812863045501
0.5274515665282895 -0.9980994408375181 1.844537794487056
0.5858083781837189 -1.029657155933169 1.88311626159059
0.7622334622772348 -1.483624419259923 1.942807883009467
0.590291838259298 -0.9541744226738914 1.862917406246235
0.4342452452201422 -0.4578813733099971 0.7709374786336123
0.4858932315394198 -0.4127736544352172 0.8135964675354611
0.6535293229401473 -0.9894272243156332 1.901143661415777
0.07817428888185607 -1.388217099694111 1.362123448113591
0.2773001572534322 -0.5858493788690939 0.8086655029914422
0.7736967890221356 -1.6332837408487 0.1045222332731346
0.8022111979504666 -1.701827215017906 0.1300966964351883
0.7467679889780079 -1.562324659910555 0.08439809119600805
0.8499579489417811 -1.64980118644639 0.09576198142839543
0.8790093087089506 -1.717029991199525 0.1240752087415923
0.9271744563348986 -1.663665824496151 0.09248855333180395
1.012119803632429 -0.7390129891966835 0.1404970127159519
1.0890992048641 -0.7282183384248975 0.151586640053028
0.8166087551741552 -2.197511558376759 0.7381040319827874
0.4969770376350801 -0.4273142301561329 0.7351301764450618
0.5503305478616827 -0.3846756038103989 0.7786155534534375
0.5636424444600161 -0.400581473613523 0.7032168287207045
0.9628768779188163 -0.6136636864445411 1.770517988016889
1.004034977440775 -0.5638341541150068 1.727433949508809
1.082454106484922 -0.5676606628356526 1.726370669343065
1.517262128643439 -0.5947930511814069 1.550584911245384
1.565680805574935 -0.6532012531874706 1.569066324787443
0.8664058088301583 -2.21924324949313 0.7933115499170933
0.6530854416058665 -1.067179590355136 1.919905966385417
1.044957468439428 -0.517372394368448 1.679143296733537
0.2147057113370747 -1.681279076178686 0.5558027030205507
0.2210274814495319 -1.627504405562897 0.4993082394089706
0.65767840654621 -0.914911956677688 1.877799481588866
0.7208686868622987 -0.9498153653150971 1.912126578455597
0.477637827223953 -0.4029039745163382 0.9021936399692196
0.3316406916114925 -1.601631193945306 1.655477946490219
0.299921483596022 -1.641877096242775 1.596927476591533
0.9565250126483534 -1.729535088102266 0.123554893473912
0.4261972953615296 -1.586448024427203 1.746694839280819
0.01957205110392235 -1.190124500082235 1.187552556722184
0.02357142062902784 -1.114245189021411 1.167803041342381
0.6872460602846221 -1.469835246711623 1.92404406685815
0.8333554024454607 -2.109251949312564 1.483648287196848
0.3670765889702836 -0.9763158328632522 1.724227127653455
1.063480511982558 -0.7918584511547024 0.1133904208615474
0.9807153817645951 -0.7960003910338727 0.1092068373869733
1.140224373996755 -0.7825765201003876 0.1271584248125237
1.165489057201071 -0.7204634557211193 0.1680117667779901
1.216142292685919 -0.7763606570565815 0.1462153186378889
1.24170898973582 -0.7145839595810898 0.190737108262695
1.291278145895051 -0.7725915577170483 0.1710016761410751
1.314620609199158 -0.7142454032233335 0.2164306767746568
1.363633887233213 -0.7732614418142665 0.1996933442769259
1.386991765300664 -0.7154213384475683 0.2486924543156204
1.265307592929082 -0.8352808075531142 0.1295863784668927
1.434297176093205 -0.7763972194196354 0.2337843847427705
1.455838103116236 -0.720512117694987 0.2845601309407305
1.50231936696563 -0.7826372065649679 0.2725061698654399
1.522815989596014 -0.7276496604275214 0.3263431409305947
1.47465637356708 -0.6674954881156636 0.3401592459793504
1.539394164479156 -0.6772715864540272 0.3827187839866285
1.585746441791468 -0.7394634262729516 0.370513294170814
1.601135743707678 -0.6893929527535954 0.4304777825100374
1.645764438961507 -0.7537768579704571 0.4196975937607547
1.658894543569938 -0.7062434899194584 0.4802050036804966
1.489837820275254 -0.6185521384461244 0.3988906023301372
1.701401114541042 -0.7716928968967665 0.4715505779721422
1.712652967169306 -0.7255535914855978 0.5340797139197211
1.752976645166532 -0.7925509616019064 0.5269603091680204
1.761965987029149 -0.7479274204743468 0.5909389293771029
1.668824709394069 -0.6629325603224853 0.5439020616419898
1.799951029135131 -0.8164060161145874 0.5851812346047714
1.806529220162385 -0.7732268751649132 0.6504316884223591
0.2131798868587796 -1.732567856406957 0.6152372503486965
0.617604277033876 -0.3618324764002481 0.7451824945575769
0.9255967420326447 -0.5640855944760411 1.723868484946373
0.8846427164745529 -0.6167374937218818 1.765291640670396
0.3636214568428403 -1.216420391692054 1.770645677153292
1.269574375572609 -0.7519120423711532 1.824158991032532
1.123179910641623 -0.5233832052580503 1.675910307077246
1.085423716820864 -0.4753475906249136 1.62659112126959
0.4531678247882667 -1.964714871878797 1.436070205435407
0.2571066040127046 -1.747246683349594 0.5518313508328678
0.2579422174131379 -1.79702291161666 0.6125517047802367
1.685970062342851 -0.8209140856267291 0.4123518470582938
0.3521444335627569 -2.009994064290535 1.051886291825807
1.726586821327939 -1.928317226774041 0.8906504186833067
1.36472891872386 -0.3189455003243215 1.010504022096112
0.1144156747385796 -1.70611151684505 1.087764953441463
0.7386923764795268 -1.844626638994618 1.760353527043866
1.842051377960847 -0.8430036669093124 0.6460177098709989
1.84606760148369 -0.8012957955084461 0.7121907739643538
1.808011368648117 -0.7328405257047645 0.7177524025220551
1.844996327572896 -0.7624004618909148 0.7803914919131629
1.880442043868216 -0.8323011154939677 0.7756131704587497
1.876707189160482 -0.7948033023755101 0.8444992895640482
1.479332573269251 -0.8399748886164508 0.2240362816226614
0.8929620725659377 -2.204454224550101 0.7215040120054049
0.7326309352137758 -1.411255793627511 1.950005448519587
1.032418863891338 -0.847081194924201 1.914661387498283
0.9432496828504608 -2.223376400366373 0.7779239213394922
0.6585390763596941 -1.396878326073305 1.928348638689481
1.115309744083865 -0.842768578886089 0.09398331550856187
0.08241451000135169 -1.635142359645972 1.098499905331289
0.1088282630158366 -1.673909025701992 1.161598493585234
0.6322451536800565 -0.3803297359854753 0.6707128837972833
0.7552943250395844 -0.5340416769402662 0.3461477137122934
0.5130593723489587 -0.4444749729734409 0.6623341059913348
0.2755030324770843 -1.57066483991943 1.610146051769202
0.2466638664386831 -1.611802843009164 1.54916607020224
1.247838651476652 -1.585495131135192 0.09114411493415819
0.186189516456144 -1.5576306238818 0.5069727227381738
0.2326302736577202 -1.571437075891781 0.4451829947311314
1.715996274266521 -1.922548057264467 0.812841121219824
1.753436092728848 -1.867755422382083 0.7748061006798335
0.01003176023394781 -1.165518595775896 1.113250945227082
0.01688785155100558 -1.092180518564219 1.092647260355303
0.009241030232449154 -1.250584851252413 1.13563304086451
0.3041612722761986 -1.810089686523122 0.5504357575939198
0.3071309520522897 -1.857749163546758 0.6119620680857997
1.909440372205169 -0.8660514558074642 0.8403074052569872
1.902939451499722 -0.8298031334209274 0.9098060964227001
1.867467759804969 -0.7599521733893362 0.914251452880447
1.890974810183458 -0.7963982894995396 0.9797669614341533
1.923587577057854 -0.8673968609481009 0.9754882580783159
1.908913172793259 -0.8354931020626002 1.045396870874605
0.7017726433541713 -1.890092481837961 1.708055123872824
0.7775638996148965 -1.90257130165151 1.724343066168457
0.5960891931331509 -0.8792065335849125 1.836282407659072
0.2812438718412571 -1.691914374826592 1.536750699632404
0.2231442205596647 -1.651995976016683 1.484658986522012
1.16332413499399 -0.4836759295637989 1.621347443865795
1.125293553235674 -0.4377345091541961 1.569672096822905
1.788591760775321 -0.8602162003029676 0.5244039273385213
1.180288343339072 -1.58513332847773 1.924760382693534
0.3499026242833851 -0.7296319500536212 0.4462938552974388
0.369999690865298 -0.6680243424308635 0.485797759157789
0.3133821859145185 -0.7089561649894524 0.5143792158715257
0.4080937801433766 -0.5214499162086496 1.344763400468581
1.06252215251352 -2.186492441037205 1.345069396390425
0.816306034059074 -2.231207425042402 0.9409363401188809
0.5236268290424179 -1.78995688852324 1.693912934400361
0.6810507509308326 -0.3380807865364654 1.258214493462824
0.7405716349218263 -1.95699077975647 0.3420783019749203
0.7790977467596464 -2.008584201779605 0.3870137005415754
0.8171441163692122 -1.969794600410208 0.3303288426086188
0.8562935146933995 -2.019105830583855 0.3772442955357679
0.8944597978632833 -1.981139949794431 0.3259854307601812
0.9343775731682591 -2.025017896700772 0.3714771627934085
1.218044415555252 -2.103176732025044 0.5261370485296033
0.9758479014718229 -1.992676112828476 0.330784886922994
1.370559899029903 -0.3403071013946477 0.8125321588700075
0.465232945884214 -0.8817469425326 0.2394647388199309
0.4554605685563357 -0.9558568562776968 0.2145341391224115
0.5179703665055335 -0.9148868185206281 0.1904652027046867
0.5092569821677199 -0.9897570258209409 0.1684683500675973
0.5732684614268504 -0.9497060468084502 0.146932748452044
0.5651114603040284 -1.025213521713231 0.1280235110849965
0.5033874963023822 -1.066240934991842 0.1517025125591194
0.5615385504948995 -1.102555795982941 0.1134269550681896
0.499776614802264 -1.142179637285829 0.1408426603435771
0.6254693220430148 -1.062330688097967 0.09197632154260504
0.6222915046163631 -1.139962241032149 0.080637185809453
0.6853247611015596 -1.100023430443928 0.06272388134104157
0.6852713630631273 -1.178229380092335 0.0535355985511512
0.6902147565695302 -1.022233513214777 0.07687729393636866
0.3904081373630842 -1.744201843044461 1.619808276274457
1.69079538304882 -0.6091793558149883 1.334888997646594
0.7563972355541195 -0.4030965513845758 1.472665041945802
0.8476235576790496 -0.5684134319113751 1.715696283368008
0.8070828360225398 -0.6230950801203355 1.754833219508499
1.313368578198129 -2.093537118268825 1.436171141068284
1.299579646342194 -2.059196463259483 1.505423702793835
1.369898868686902 -2.051483847781675 1.469891975553138
1.354952432940491 -2.014679118810756 1.53784255652043
1.423672294417766 -2.003712864248116 1.502412883204329
1.407648650216985 -1.964543113634337 1.568551419604259
1.475263517452432 -1.95173976899807 1.530740883657248
1.489899463195938 -1.988662719176118 1.463007454864039
1.540000752064467 -1.934466056587555 1.489801393576307
1.553046827962993 -1.969192105073004 1.42059710184538
1.601460765609658 -1.912828597822381 1.44598564701239
1.338741017027846 -1.974274047277778 1.600567754564635
1.457498469952701 -1.912575591183634 1.59303350323451
1.612870695671752 -1.94550601841141 1.375047848601122
1.659445014513577 -1.887071171422695 1.399089708430704
1.646054153201837 -1.852361841980915 1.468800855861011
1.701842549508759 -1.824581035265946 1.421038798226197
1.668564461228597 -1.917496740045878 1.327825659780075
1.620046934767625 -1.973853041026961 1.302619519663377
0.2544678675501508 -0.833068021611284 1.519951502432344
0.3953306488762065 -0.9952019295119933 0.2453789566364324
0.5763829930946944 -2.055977893806433 1.413458905038864
1.633969175368946 -0.4843881782915247 0.8908138143250359
0.6212482743562446 -1.218275573716745 0.07504557350165852
0.6727886844134261 -1.542211976736048 0.1013649708562908
0.9973813190643444 -0.29011320445669 0.7196243907688245
0.8984671400614391 -1.595181260542849 0.06697214633069692
0.975952806703188 -1.607874456855238 0.06653998177473397
0.3047135530592203 -1.762011852115918 0.4955987509994714
0.3084227257454897 -1.527493265191172 1.66687207282075
0.6052951837715737 -0.3486764606605655 0.821607215732477
0.6737685327666189 -0.3285957929884344 0.788842908979728
0.9553952091974882 -0.2861278551836262 1.262604076671607
0.3880004487084138 -0.5054689242279773 0.7332978694711051
0.2280305597077575 -0.6328343344700649 0.8477839543744677
1.686858992180558 -0.6461270693144874 1.40442824882295
1.736843213839865 -0.6711563635094728 1.349288022572435
1.730832783366011 -0.7098866589451416 1.417326037495922
1.778551335229751 -0.7366433010230325 1.361002379531553
1.770210849611626 -0.7769998513370117 1.427838879141818
1.815538557917665 -0.8052791448186211 1.370297477059078
1.803603352515863 -0.8448412449709912 1.435967928922082
1.756991135830873 -0.8201253105521922 1.492109918255705
1.844142287727691 -0.8672226103105793 1.375373504675562
1.423344986657392 -0.610942705628283 0.3578280629127797
1.4374464528842 -0.5631071744446021 0.4196390372711541
1.732591957637864 -1.92994095574345 0.9685465374401218
0.2826630599362308 -1.9418014122012 0.9173046525107129
0.5379097433928267 -1.686185676389039 0.2278506294364065
0.5117094809339979 -1.615063138428578 0.2073454258310676
0.06153665564679889 -1.593797817386966 1.033009272414935
0.104928121292802 -1.049928453436115 0.6014806049850241
1.682300352801101 -1.977902453892748 0.931998189844617
0.8312141643818306 -2.224689337068126 1.146601629937643
1.495546802933591 -0.6354983840950524 1.613857581326895
1.551398208352243 -0.702369677009016 1.629333810601915
1.166326024036275 -2.236022622294024 1.009748951364194
0.318915374750892 -0.5354760217118983 1.159935042128441
1.782100926081045 -0.6997163339443105 1.292414138330352
1.263815351505197 -0.6584440899822264 0.238118732588054
0.882694181944499 -0.420260868747267 0.4543148168418997
0.0558566952371784 -1.561741918680563 1.106819456134635
1.330119564579339 -1.009707930867835 1.912842152069092
0.4693851997783831 -1.659672045204937 0.2579644555930104
0.4455805952656158 -1.58700710528959 0.2390497160534717
0.488690487643747 -1.541661373077708 0.1916088656915906
0.4145147711616984 -1.517848834943326 0.2348437751467582
0.6852986671132408 -1.25670247937432 0.05083291889702901
1.033886751093482 -1.448115799051701 1.97959267977381
1.200638048935716 -0.5340162156852218 1.668664036656346
0.7544949242312571 -1.061533677221177 0.04910163374311527
0.7461403667561439 -1.216615408944123 0.03333524131200127
0.03372340804953833 -1.039026547773874 1.147647385023886
0.02995388204604144 -1.017958679437203 1.071884313962977
0.8938598959394723 -2.062582312526478 0.4268994296991651
0.03782016647010222 -1.519353780112913 1.040724796957906
1.855757130865197 -0.7329096041361784 0.9827589014630087
0.251654277686629 -1.497149682386139 1.615545054721188
0.4214924803253554 -1.247407730340097 1.81567293066394
0.01604075131291738 -1.252618016712657 0.8216258345173152
0.466082604002205 -1.467543523163422 0.1829277695450791
0.4062197193806113 -1.436667390039134 0.2173249308662387
1.36956174344693 -0.558104114049827 0.3797547253016025
1.382354359719632 -0.512956522883973 0.4427100786447802
1.448910471081037 -0.5207172181977943 0.483641584632691
1.392598302805006 -0.4722698011659324 0.5090801384582712
1.457855366546004 -0.4823568912686962 0.5515665925219622
0.2000581370239068 -1.500638520197248 0.4547722053566317
0.2528129762318915 -1.720979094779949 1.46892456087607
0.04982805581617955 -0.9651241663798114 1.126566330061124
0.04901903635105009 -0.9449154022722455 1.050582556347113
0.03210588358870525 -0.9986738335085052 0.9959828551073671
0.05413624226213576 -0.9264291415193098 0.9746297154120006
0.5991856842218242 -2.166155888927656 0.9974957135847151
1.787952286451219 -0.888732198019851 1.498614850890674
1.73897379213437 -0.865753488195296 1.5534187860061
0.6625723578630538 -0.3182535448707012 0.8658689831698623
1.684291004371951 -1.979090326789065 1.013157382651619
1.907207642502129 -1.57113289952019 0.7282501992061727
1.871772651610017 -1.630436293157802 0.6913243275650129
0.7257108440769178 -0.8759562152413005 1.885921388175266
1.046958410146229 -0.4321401062844673 1.573498127257759
1.086452901019784 -0.3973276608169514 1.515243416161111
1.164351730428389 -0.4057764400974072 1.510171627602503
1.125151438154701 -0.3674587868001354 1.453274888485477
1.202685308241097 -0.3788185091209965 1.44717052203052
0.04028487542119241 -0.9803258723297043 0.9211156256287153
0.06427609554488978 -0.9122359944429277 0.8983326444657584
0.7511920023512444 -1.295270802881351 0.03250574435168108
1.097711231037272 -2.244315193002438 1.042306173234005
0.2390970858735836 -0.6429949458394184 0.7707149819603625
0.7595885354152468 -0.9850643125906622 0.06618448865252002
0.8232114828081071 -1.024211797143119 0.04199921313197674
1.228133608678211 -2.205941804525774 0.8152560611238782
1.686551739526808 -1.788165066602813 1.488901902267831
0.5068486142894242 -2.063489672888486 0.6917204793121636
1.884714174957633 -1.562598704553922 0.6542213445855222
1.846199143677814 -1.620894331079771 0.6173978510099252
1.805673040664123 -0.6980297332459332 0.7850121487933077
1.910412163038155 -0.9047867820891501 0.7720141943632806
1.208455978556651 -2.064451843166128 0.4585073406155105
1.739280549755062 -1.760956112939659 1.438620701065793
1.753294083454701 -1.793539645693972 1.370287290344962
1.905921886075802 -1.577356736408753 1.268594682480259
1.938730814231888 -0.9077951697601703 1.040991615875261
1.889597171408091 -1.646117981754485 1.22739264973494
0.7048638097576616 -1.33782320249425 1.951410381650785
0.7798240150101325 -1.351816163686497 1.970131952079667
0.9701005328829202 -2.205501998843623 0.7065345811310038
0.5246884268128802 -1.977743325079273 0.5055623788616515
0.6317546738312594 -1.323083423254588 1.926851764307685
0.5865255228486055 -1.381798989129779 1.900926125278177
0.4822067119129501 -2.072642712120156 0.7651615895821215
0.9508296003370424 -2.066935905926051 1.574628573433107
1.01146899425608 -2.037859736387357 1.615747917536388
0.7320814740312784 -0.3009696040486542 0.8339850277740611
1.163060880621628 -0.3434534141593861 1.389338460611877
1.239948066697485 -0.3573117436078607 1.381487355213383
0.1177033875322758 -1.29056432617898 1.468942665013138
0.4529899422363109 -0.6549939439246382 1.58885294423906
0.4869634109796279 -0.6892162999731622 1.649857753751197
1.936618570918047 -0.9396227197193886 0.8374835500724748
0.5562974055852392 -0.6627040170275682 1.676913167322113
1.921233352723339 -0.8768878950096244 1.110074824277705
1.584633984190509 -1.937695462740754 0.5695606255750845
1.624147185429653 -1.887019991433537 0.5476220369710086
1.633693691456065 -1.83651429372583 0.4955861930279103
1.856389978571272 -1.552096852963043 0.581271333638929
1.815428744447348 -1.609242053643498 0.5461045168510446
0.2034178497160098 -1.686454510884321 1.418287386586857
1.487306581544838 -0.693513363199395 1.672944959595832
1.534300232668806 -0.7558887277276882 1.685840587879937
1.14702558056026 -2.099241235999359 0.492877922252245
0.192193802555626 -0.691869669093128 0.8104223613074404
0.2057893935577136 -0.7031154426030707 0.7351476005482669
0.1091652223011506 -1.412344395133644 1.42433205890073
0.09713278525302671 -1.463620085369462 1.373091478945562
1.802877823432411 -1.67699606080273 0.5839933117131595
1.769488636684866 -1.66411220689605 0.5137918983474785
1.780067690935104 -1.595464101701864 0.4783210259225507
1.733422302334646 -1.646308021328707 0.4477032693663008
1.739769836920907 -1.578755673535258 0.4129222406696081
0.7528523834047864 -1.278090823891529 1.968570576274337
0.8447644767876511 -0.6669941476989488 1.797499911295113
0.7666146671166396 -0.673379011105997 1.782968403935833
1.240540200388566 -0.4962222380059537 1.611522278842133
0.7413079779226245 -1.946401397882077 1.669405356074634
0.6665161722993411 -1.931500216467068 1.651418445868289
0.3720247354161088 -1.294519268806525 1.776958880363513
0.5664222163471595 -1.627263255070985 1.81834145800878
1.729903062813941 -1.712153620499148 1.503642283723635
0.07183181779125059 -0.8929303048883521 1.104904996869457
0.03496023461782505 -1.485726731435107 1.114591270688641
0.02001374892097474 -1.44327879519143 1.047647193258648
1.400243232273391 -0.4361707063461855 0.5787076599197634
0.7441835948018519 -0.3142631716618282 0.7571944092012797
0.2084195002698135 -1.846644067345065 0.8680296648907551
0.4351196836522361 -2.057022280904246 1.172119918449195
1.666882954868571 -1.74857579440912 1.553795360882591
0.8648615958070172 -1.924327754321465 0.2740387810192996
1.20055423305361 -1.646791618822824 0.1042687842682714
1.172839385859752 -1.582431271560609 0.07284521444139613
0.786110422038667 -0.9085877264556625 1.915253466485
0.7834031424491071 -0.9833581610319988 1.939142125032649
0.6223460705669919 -1.296787299691165 0.07523599866159492
1.673868807651659 -1.943910406198095 1.25375022806714
1.623382532043559 -1.997948615341189 1.227962908281502
1.567612432419111 -2.025748884390079 1.275735008533206
1.276892978841761 -0.5452554580344477 1.653196301916889
1.313372066794296 -0.5095989823991776 0.4053536505714191
0.4512411900146046 -1.390192800473047 0.1758581753369526
0.3917304348451143 -1.359573612451482 0.2138691205908405
0.3452028009064322 -1.404619451061029 0.2601801209667284
0.3326026087417671 -1.329734198207419 0.2595790523101571
1.635528294599634 -2.021652092691323 0.9743712152378839
1.62817426298628 -2.021089844124809 0.8959925598371848
1.768153169859491 -0.9358967870118594 1.557924617869962
1.718804057434526 -0.9128879315447811 1.608010016625966
0.9198506812697511 -2.183622420552258 0.6508220188081437
0.2413378660804838 -1.770303573456116 1.392066267364948
0.3959160698025843 -1.911635925644086 1.444207729755277
1.569883538560418 -2.050575616054745 1.185233462032164
0.7218085286699697 -0.2935946408841489 0.911127651467327
0.6532610197323321 -0.3137293402726014 0.943703185733478
1.199701509124931 -0.3247241499782474 1.32246536034084
1.275910002651157 -0.3413888933581134 1.31352755432983
1.232690864766675 -0.3106455263654093 1.251928827879657
1.310005364499523 -0.3308177177363927 1.242900403363568
0.05277246096715049 -0.9740265698081814 0.8369090587250991
0.08198245150689554 -0.8949734561259837 0.8233649700552528
1.101600947264436 -2.244246247208986 0.9660640688087481
1.346623710153837 -0.3615524407774344 1.300853682162368
0.7713326652630614 -0.5731878615083903 1.699740365574774
0.3540267706942209 -1.822180362883131 0.4946998720055656
1.227912144974902 -2.062551549444612 1.536484886709868
0.8931437286874161 -0.7067315854131215 0.1672688507126499
0.8289491308225838 -0.948499969120313 0.06200248852505041
0.7659613629812005 -0.910226898471539 0.08907730522282364
0.8931090422271923 -0.9884614351148651 0.04074408929408413
0.1948539816805424 -0.6906870520578066 1.197253429497529
1.200967201003267 -0.3208888665876609 0.6895733808286553
0.9007210800121456 -0.5175211742270699 1.673512038378198
0.08749664040853744 -1.030706390334586 1.34532293797865
1.546556738494206 -0.8468269544380824 0.2660196004395595
1.52206858359906 -0.9054111386184381 0.2198058506816201
1.586129503688906 -0.9149076380687642 0.2623243843797315
1.765282637770754 -0.6679141377733141 0.7251936439555081
1.453218566085593 -0.8997305180148149 0.1803023598026228
0.7101989091732404 -0.4457435296670341 1.518832205711229
1.531758176738881 -1.991617094806643 0.5910533944854224
1.16841643709474 -0.265373183716459 1.046324252521239
1.063011212398355 -0.6185143366009602 0.2271769646073145
0.8152303939778391 -1.855180143746399 1.774349524636971
0.4344632920909537 -0.6183738840659557 0.4697013278562058
1.274007451621643 -1.82653873037196 0.2302448383824234
1.220376719174263 -1.878651003507961 0.2541903611279741
0.4405304424757855 -2.028630321019413 0.7158721460453665
1.093501488104155 -2.238365946933489 1.119959270857135
1.947969945567467 -0.9499131288312006 1.106305465771677
0.9474393499287272 -1.538304576996703 0.04390489544876464
0.4065631213897741 -1.632999404523868 0.2920846609659355
0.4321178832176477 -1.701216219809034 0.311586007971918
1.464179217667599 -0.4486762189095038 0.6226171019450851
0.006363422756549553 -1.144083783060526 1.03831588904294
1.055227384501499 -1.038619148135988 1.975842236976023
0.4489721969431906 -1.919021815690067 1.498776673862313
0.8546142892485582 -1.911721910767933 1.73551825804594
1.520418570770643 -0.4971118152807938 0.5971056062598298
1.69176842986268 -0.5333161134753993 0.911565582258286
1.708444997846233 -0.5443438848432489 0.9875447935170466
1.200091080717132 -1.821579664934034 0.2042234949111986
0.4210282935214081 -0.7194345876948746 1.619105892689417
0.4577621387395012 -0.7560448261393822 1.679695805513001
0.3937613531640175 -0.788015914751633 1.647337167216364
0.8004586450813727 -0.8373090528689109 1.88874598723892
1.888699364135571 -0.8061261810278972 1.114845430976391
1.813903830620831 -0.9520433344477857 1.498780893733655
1.468720766615104 -0.7484611719342102 1.727158611917746
1.514181948524938 -0.8117270932506685 1.737247436767731
0.3359469265842897 -0.6499143314351319 0.5539835136789174
0.8169563131732612 -1.255306488702947 0.01690954134905764
0.8185215556338862 -1.333742482534244 0.02017717374544847
0.2918857679015202 -1.374440882783935 0.3049541734593788
0.2808792419136938 -1.296710581934957 0.3066866099485211
0.3262917477182882 -1.255765163120246 0.2610250655795433
0.2377614784904182 -1.341121036704406 0.3591494768693709
1.145811266868713 -1.871839126977709 0.2305487834737399
1.16671082971364 -1.926175671401247 0.2823692030986527
0.7070216620187745 -1.985623741750718 1.610754782254247
1.78525422095256 -1.731039313349793 1.38984225975149
1.926233491109005 -0.9162714685654375 1.175262053093517
1.493651673914592 -0.9669883237295744 0.177678641931316
1.425233847551802 -0.9609176209051919 0.1423243311174224
1.670787579646016 -0.526278289494183 0.8379169696261376
0.05147264727311707 -1.360325531826072 1.296857100565618
1.785390899241299 -1.524199367466313 0.4450442880102794
1.743992708015388 -1.505364482512578 0.3825343479261272
1.694194265319799 -1.560586538859989 0.3506693262473446
1.418442637598586 -2.152556855067957 1.101473555221921
1.59025201345121 -1.972386225427277 0.6397768720227357
0.8535161481149278 -0.947752365908703 1.941907027696006
0.8499890616382091 -1.023472918285202 1.962383603154996
1.020697279779037 -2.221623397461362 0.7643740334441295
1.04110581798398 -2.249153933422606 0.9986850650200594
0.9971617919202055 -2.181697254571772 0.6367753169203428
0.992350171471465 -0.3947521692807355 1.518162742942289
1.584000708652483 -1.586648034269885 1.738655043518705
1.593997879874867 -1.649366088243327 1.698336055395528
1.419276703001075 -0.6889867336798363 1.713772485693676
0.08495690536050804 -0.8501831017255848 0.9466841223760923
0.803293781321457 -0.2896104276643126 0.8026208397979545
0.01573388765862749 -1.176163506890741 0.8394746363289369
1.278889195639304 -0.3953997463620053 1.438040207101514
1.962737955934043 -0.9824195452589053 1.039196025876223
0.05695041001552148 -1.527186289738715 1.183916371242454
0.6330301890188513 -1.969085980322629 1.590125843131703
1.934721695511557 -0.9794100462924173 0.7696167781878898
1.536299309453856 -1.650446771308866 1.742984141168317
1.544232349425194 -1.708952159720068 1.702263529543873
1.483306163352458 -1.708323772460091 1.74589172945105
1.136888382231867 -2.057948083318744 0.4268669740178033
0.3694566979775898 -1.670724724978464 0.3477685609643835
1.958021910222614 -1.01518278734761 0.8355162738275441
1.951783427480881 -0.9951615827862561 1.170779648332993
0.1892596357751438 -1.72150681599964 1.34696020561792
1.52515203657161 -0.4661720948777023 0.6685951816338815
1.579452807628893 -0.5167305710002191 0.6442607862136535
1.74374706156911 -0.9870881397423354 1.614587391786692
1.691134837378497 -0.9629142178732008 1.663260424164176
0.2884581082215014 -1.451950209724559 1.672996470300166
0.2379051240101058 -1.419044311640338 1.625008336497996
1.21840092901072 -1.518834666815546 0.0619014144955613
1.141724231769799 -1.513573594618064 0.04582852570967466
0.4177118880268349 -2.0354932894865 0.7903792786330404
0.4606876326294181 -2.076828611084213 0.8403233946575452
0.3778496092136423 -1.988863571781595 0.7411380415384956
1.482549368229414 -2.123324548001716 1.066710876766769
1.485826316322341 -2.124005478156104 0.9906611284522909
0.3099422204968942 -1.458058629418509 0.3067959408141534
1.926867794847035 -0.9612042070505049 1.239818850072441
0.8387095372100888 -1.49577226250712 1.955814512128346
1.243369281584993 -0.5913217479738417 1.711979180235328
1.853598095540669 -1.695889334196641 0.7306433722014253
0.1561085495037607 -1.485970261126786 0.5181647007087282
0.1434104158972433 -1.743540112292022 1.15057370940986
1.531721471910933 -1.758764386396934 0.3229246161297685
0.2315048283047096 -1.264251731010583 0.3603031505125039
0.749448234044613 -1.372047710642573 0.03962082024674041
0.2170630335676598 -1.782895515396524 0.6790139002012745
0.5803061493199693 -2.154772295921831 1.072416601920466
0.531582166475195 -2.13335604532392 1.016334944922268
1.333749379064863 -0.4286647145294268 0.537377366728788
0.1588753444298528 -1.649175099888125 1.364922667727434
0.5267700280437833 -1.154392236354084 1.875735433320443
1.906009013757281 -1.645084484615241 1.151841749880816
1.870278354582322 -1.706099327840096 1.185981151435564
0.8878093137625311 -1.064925555557993 0.02370050704916971
0.9580450722576882 -1.029864635626076 0.02543332429735878
1.9370305784315 -1.510308553470266 0.7671628206781683
0.5817111642027512 -0.8756300790150229 0.1724242559686249
1.612442168274673 -0.7145595270644567 1.5815652074029
0.02602357141731837 -1.475533202909068 0.9775346722502903
0.01155387474907044 -1.400878109028861 0.9855067708119036
0.4308992730411936 -1.325298587850816 1.818812851170908
0.3787701545925738 -1.368715092006037 1.774583892231864
0.4438706975633521 -1.404694576193252 1.816571972986899
0.1974592080384799 -1.577751413731809 1.498505053168548
1.316170122278785 -0.5128612803915853 1.59721266047555
0.8285340019466243 -1.291883246042077 1.984299347359602
0.8022085894145051 -1.218049886400069 1.979723301825343
1.125298103385039 -1.81462654169549 0.1842198496524305
1.070463065802092 -1.862298422222681 0.2125194615094377
1.53564414483453 -2.024047857255809 0.6624570178745002
1.69591141876857 -1.579590767201818 1.638026036618281
0.8561102161801195 -1.36538675526076 1.982843643120645
1.744785308405527 -0.5860639326772769 0.9330392436473423
0.9086137527478111 -1.781438030452424 0.1578467042147197
1.340248364885418 -0.3952140317133678 0.6081173662777539
0.07537202889872152 -0.9140720967280783 1.179486932283283
1.512912165197521 -2.072383334018507 1.246184407956711
0.3451124050815417 -1.89976583603026 1.385910088427103
0.9635745759759119 -0.9541440812463273 0.04546217265993824
1.031030155032338 -0.9896673769525794 0.03497976453552087
1.759103042334342 -0.5990915281696257 1.008985122046651
0.4316277227712926 -0.8256637725008261 1.7049054692011
1.085590122354989 -0.3350000836446483 1.394270825733984
0.6747482643412053 -2.020172457795521 1.548676310500233
0.7856250566653312 -0.4349200172500355 1.538226723036468
1.265826196961273 -0.3031403879381598 1.181089226778425
1.754389846472133 -1.730549933843376 0.552822495397098
0.8161057352313599 -0.3057670643128079 0.7268570657169622
1.584006959079637 -2.009758091073649 0.7141617331519801
0.5171837843255936 -1.419059782754685 0.1407519032684542
1.07950009596909 -2.095221956678328 0.4715309103743497
0.7810258139646522 -1.995460747429894 1.629554270807069
0.4023075807392067 -1.979994848680058 0.6685316110716455
1.69517048650427 -1.487661059814701 0.321578880531296
1.64664632890421 -1.539966087916325 0.2944731095321664
1.471167512993219 -0.4642929000932025 1.400831046521891
0.9470380548799437 -2.156770609802247 0.5817152960387368
0.8699304354423638 -2.155687188877747 0.5964995362102903
1.853230186835359 -0.8310108844660402 1.310558157736949
1.578623320899996 -0.8202821623339573 1.693208217278388
1.55681805959251 -0.8774604560268253 1.742406853879927
0.07524992178542822 -0.9502255918055784 0.7655376426079705
0.1055007578017172 -0.878655173704783 0.75105397032595
0.005645441188755429 -1.229741660579113 0.8958433340817633
1.891867379704294 -1.492832423924914 0.6184177796199788
1.575193438830811 -1.697431960657168 0.3151955399470087
1.49139412710434 -1.767017000495578 1.700874620061192
1.426790123663675 -1.762297854060068 1.745252372735971
0.4363759236878134 -1.316466094966902 0.1766470023002981
0.8206656117365457 -1.411355697630199 0.02953438184114709
0.1003466274299942 -0.8429351309603926 1.157867037779207
1.491641670139072 -0.8696803337319594 1.783355232083523
1.533089175479066 -0.9365443769313986 1.785850814947547
1.464069297713523 -0.9308179358051021 1.826294437120305
1.507848388651119 -0.9967602491908916 1.823383047405399
1.570640679277353 -1.005507885753324 1.783959706378505
0.1718742171033816 -1.429798131368865 0.4690759756253938
0.4963892079893929 -0.7945607595997312 1.734133004621148
0.03156237915672822 -1.124109846826729 0.7848715642472304
0.7134728045622385 -0.2919887080055313 0.9892050620353818
0.6459086942796777 -0.3150437158817407 1.021819578388554
0.2192805877791337 -1.782558755280306 1.326891987598038
1.342552537583095 -0.3263141747674337 1.171645726016745
0.835947300123303 -0.8746524963499316 0.0877495063488164
0.7735740708532337 -0.8374833663316706 0.117638778301668
0.5609478709469981 -1.307687806769692 1.896607687299261
0.01996201306013401 -1.407825039410959 1.120899963150467
0.7818573628998127 -1.062219354928504 1.957680645735053
1.675450417705602 -1.96541260146714 1.178749945128235
1.723250111156376 -1.909949942614922 1.203409316293161
0.4769698451095106 -0.8638985927546481 1.759845484554847
0.2757633866227035 -1.375131343673877 1.678102849628399
0.2255769126710577 -1.341516864004689 1.626014013752613
0.2831602584461413 -0.6923564107231478 0.5814615761158521
0.2593450527234371 -0.7555546642955724 0.5450779637400628
0.3124410575320323 -0.6316795543861499 0.6192868177115223
0.3718761077772151 -0.5900014636376906 0.5878564473165828
1.467423125616929 -0.4201352746241332 0.6953031683536284
0.3950112941006079 -1.863969734904431 1.506981094672732
0.9345590088871025 -2.012996224121373 1.643081828897917
1.003071658130339 -1.988540869778301 1.674201712088779
1.072606326126862 -2.005416545984563 1.651209769167441
1.060931012673926 -1.95474683656114 1.706837540069566
1.132863632321524 -1.967033449717991 1.684258932854989
1.119473807531531 -1.913007436466653 1.739017691604089
1.1922768201951 -1.925288930988469 1.712049495540943
1.178760683603083 -1.868477384110973 1.765199544786199
1.250748336640257 -1.877156641166057 1.737427839936529
1.236391954138278 -1.818698968657135 1.787845370023203
1.047909144429697 -1.900964394123409 1.757594925711331
1.463154836866854 -1.029675256125228 0.1415452229014307
1.392271970339755 -1.025007612203102 0.108091301354664
1.531190943341309 -1.035905331472236 0.1802441493833933
0.9903375236706522 -2.237148847830233 0.8404889070358177
1.067042778604556 -2.233166890479929 0.8300349115229605
0.4513430418370324 -1.86952192164602 1.561398370909092
1.097809140581177 -2.21376603620538 0.7518298981026472
1.123905086000003 -1.641333017667766 0.08813049236945558
0.1908675881377309 -1.385608901417496 1.571764781995435
0.7272138288034689 -1.20426342188142 1.960986925106653
0.8870677451326936 -1.371515397656281 0.01385583511181199
1.636051509787976 -2.019307170765443 1.060041268351909
1.719349044067799 -1.036716422707691 1.661095355040511
1.552898123846423 -1.768727882323031 1.652092822186972
0.6973331821353417 -0.9477247384681204 0.09610705079112625
1.35135665133923 -0.5688581822650327 1.642335058744568
1.330264233502317 -1.582497161836531 1.883386197220547
1.356267699574008 -1.643130991179136 1.847656386759844
1.799117088555123 -1.760561666710466 1.317393546350607
0.8325082215624349 -0.3944824247772947 1.4899348759181
0.8587333707188489 -0.4270276963202212 1.550236609857559
0.8706624929311662 -2.203171953909143 1.273377094040897
0.5447729601288032 -0.7735371140538292 0.2478354830983092
0.1503163086880397 -1.742133790927905 0.8106802795654637
0.8503406492901209 -2.236135686777319 1.071683233809044
0.9061269325203587 -2.237534145715808 1.126349350007479
0.5147661187585018 -0.4409396349315786 1.331616353895076
1.381591912723263 -2.082843388814082 1.400948253335611
1.508683154923167 -2.048649068245321 1.32156043551453
0.09951703636141584 -0.822985724077364 1.082396846753618
0.3890012854578384 -0.6870003561217197 1.556517719233409
0.4437849525046584 -1.107999101491906 0.1811834358278719
0.5188264228203405 -1.971848609825217 1.497399812140628
1.612250926132885 -0.4816682463158058 0.8134118982089275
0.01930254210150251 -1.065197982992314 0.9361195602604713
0.2665254055775691 -1.640447423755729 0.4436135977404153
0.2837693303408589 -1.58306609382372 0.3867458887340194
1.861026481846626 -1.481377837256598 0.5471228709845444
0.1835659958027567 -0.6835233768547933 0.8880189649071808
0.1502365985669385 -0.7442947813001957 0.85112289173719
1.905684340079621 -0.9454847129048145 0.7050316693950383
1.927152814734767 -1.020995774261888 0.703445244982505
1.896450631518508 -0.9846186336111187 0.6451070645622277
0.272532136189832 -0.931728736915769 1.607860107441045
0.5609317928492852 -0.3979125500608076 1.284896625332034
0.493474587606572 -0.4269991797242959 1.257102423997103
0.5409128827661935 -0.3866453453999666 1.209422441897736
0.4750788122452999 -0.4184213847314878 1.181479346687988
0.5230598468040526 -0.3818161502703231 1.13705799260891
0.4595648287202014 -0.4151844516766264 1.104942012184444
0.5160921569875212 -0.3769614362556833 1.060306431549801
0.1414242564389923 -1.153627305371837 1.503547412165696
1.733324696597497 -1.928200073180555 1.047744634233366
0.7576743355730584 -0.3333219411508299 0.6822271113128768
1.785254472213685 -1.742014946787021 0.6241054589295409
0.5222900276965534 -1.892309279901722 0.4006403656284725
1.145110493851596 -2.20945986159268 1.241618953243949
1.158847891708935 -2.133128724326464 0.5585806941590132
0.3456680972536582 -1.483660887452918 1.719202579752789
1.336019497747546 -1.456966011351273 0.08116597403076564
1.642651008365894 -1.956362236690382 0.7032643061172776
1.972558091766005 -1.451073013442707 0.8829512861858971
0.3984955574863777 -2.037598027416472 0.8662773286010985
0.6359897579187566 -1.531398351129495 1.88786908474254
0.5922257862905204 -1.911194197699755 1.629716145228779
0.5478669465047892 -2.114861887206519 1.218150448073515
0.7827856113374345 -0.2748235112237495 0.9570031966772944
0.4506073113241317 -0.4150060280394582 1.030866493468783
0.4302010636794674 -0.4603773243763103 1.227651493096081
0.591659945662121 -0.3514947355164769 1.161079761977513
0.7402271463441377 -0.480422474341737 1.583325377902586
0.1920652099546092 -1.309153458392532 0.4137046449147722
1.572643740992846 -0.5493809326192713 0.5743098916767313
0.5522629892331573 -2.142272263073159 0.941846945567107
1.197832540447338 -2.021112572759702 0.3948159899071481
1.285764390799895 -1.646789176149283 1.872294137686101
1.299712209076424 -0.556589636077235 0.3447484002804507
1.244378073728062 -0.5101371697786748 0.3731967218194753
1.255378317066925 -0.4655909617439424 0.4347705104346802
1.351995363629369 -0.9576602413853731 0.1108224420755044
1.318979865913423 -1.021931210582304 0.0800888779695067
0.4894747337117378 -1.830262451130896 0.3654454788681563
1.942315947508326 -1.447075380024613 1.270558588220077
0.1453111640972984 -0.736224539349157 0.9255569357408039
0.1311453136805869 -1.412919312855624 0.532507934228349
0.8927177951597342 -1.862641994279457 1.783045538503286
1.594420376160237 -1.748613715662795 0.3690889294373856
0.7320429535189161 -0.8044111759574348 1.854195306197299
1.147741187343771 -0.2938716698144749 1.252964736235888
1.687603623257457 -0.8438999218902552 1.601900310551903
1.203239254265987 -1.975821434741285 1.657173531417317
0.5594633506814425 -1.258337141287496 0.1023040867407657
1.228890342881049 -0.5593132648748372 0.3140254779819157
0.3966064357680245 -1.739833725790516 0.3707312754302701
1.277667466349541 -0.9553872009484452 0.08561273151577908
1.243730916681109 -1.020465040251254 0.05771079677896762
1.553897997778459 -1.643329066234916 0.2661817297778812
1.398578905158223 -0.5362282874900245 1.575903463076451
1.350329097457175 -0.4822311742955904 1.536470459346377
0.9539573433844387 -0.8445790087860885 1.912969820779916
0.9190482972358149 -0.7803741896416453 1.879146415601427
0.9906250135359265 -0.9085893954740645 1.939867495313054
1.531580956693614 -2.055502658021809 0.7381085064372983
0.4429572298177973 -2.075969049336066 0.9135217846702834
1.868969671642237 -1.6415108209915 1.302673069189423
1.40001308674812 -0.7443845371142727 1.764423007320615
1.353193251451572 -0.6857895331913615 1.746271449455655
0.3144723451695882 -1.2592773466169 1.72798747606155
0.8015605349773269 -0.7679155073468298 1.853355916757393
1.565183283534808 -1.519452390968833 1.779719991416144
1.313101849304586 -1.707345075955923 1.832347711873421
1.245008046780112 -1.711539630779664 1.852614934324262
0.6051640791033581 -1.250748461542001 1.918751345781339
0.009112293546975403 -1.305594534654167 0.8773182942861842
1.949512360092254 -1.041041218472111 1.234013900558103
1.923267888276269 -1.012271211047585 1.301763863610435
1.759754401613754 -0.6306631425612819 0.8020224602474841
1.718656438805848 -0.6093237663923289 0.7296911273132438
0.2914794469727793 -1.792090931402541 1.451814174223349
1.201613627912716 -0.9547301640675945 0.0661008250200007
1.166989594298483 -1.020618151097297 0.04109518575094973
1.735692104553117 -1.793011526444077 0.5951597729386582
1.628505050725709 -0.5697822455779585 0.6227928847684476
1.12565083206707 -2.012496502268166 0.3653261054449575
1.436599953016072 -1.819670767161465 1.696315803402473
0.3995362235243478 -0.4539017486197345 1.075304895524007
1.882581389773929 -1.572466438781579 1.342148339590076
0.001823734778673813 -1.282363469955693 0.9490416899688427
0.1469509108217821 -1.680625019993165 1.294736057529612
0.1198462101861373 -1.608727262215534 1.310876273812657
1.158199387167677 -1.816777755364553 1.80853938056454
1.785580255070325 -1.453232319099609 0.4155684066402316
0.842343772619785 -1.09340119834483 1.974998117581979
0.9161925906453184 -1.062424576125592 1.978668370029191
1.824886896944498 -0.6911695341042506 0.9147350151819846
1.54151976348997 -1.066372685693347 1.820388539163178
1.47156368974858 -1.056091396581694 1.860248301382262
1.609357469296191 -1.073674384954316 1.773041235699431
1.027441284776386 -2.152006207268867 0.5691499356640931
0.09899806917254994 -0.9380626892984156 0.6985192629081085
0.1326954376381185 -0.8714693496626849 0.6767395123720275
0.07129641432744238 -1.010077561697154 0.7172512182913042
0.9735867708578612 -2.128747498330613 0.5234444675549621
1.893674619795499 -1.42281090757316 0.5858960708262817
1.921303864259875 -1.435527146391991 0.6582707685147968
1.307943759830948 -1.826877611013666 1.756559887049495
1.317906324429027 -1.876889495245128 1.711298200222196
0.2346967592421432 -0.7376359902356332 0.6103924138524741
0.2109348849030324 -0.8049474225417472 0.5765564412642752
0.3694401987724086 -0.8590030848665069 1.670459357032112
1.646716843316959 -1.466810123814251 0.2687334994806635
0.878460235236981 -1.231826974649811 1.992420186579743
1.637273955854969 -1.680207484586676 0.360622626773074
1.653908398632356 -1.736094670287814 0.4202450709861545
1.187804974008997 -1.45042609750393 0.03846026021966964
1.11061957841763 -1.444448743160258 0.02534467879454849
1.915827736033579 -1.382893169861849 1.378944538574815
1.011708813034208 -1.090830935445768 1.987181904507098
1.069050960920338 -0.9122406122356497 1.938696202598599
1.942085284565263 -1.583187788241162 1.038225833837194
0.2759964062636225 -0.8417316742461638 0.4440002064362163
0.8167257675680425 -1.176835544429224 0.01966458894544221
0.8839541555637555 -1.215490054073951 0.007355841390652151
0.7450100212503096 -1.85976285005958 0.2495538810651027
0.7879676678234365 -1.814278434361427 0.2021076898312751
0.4945380774683944 -2.000174016077422 0.5736818201472931
0.4571260565601654 -1.945927020063098 0.5299218530072055
0.06070124606825278 -1.577922497815553 0.8990807932617595
1.720584706336314 -0.5595531288134585 1.06356727981378
1.769618263148538 -0.6170632041663003 1.084135257223106
1.761723645596054 -1.824909556087178 1.298757577409344
1.608951433627875 -0.8574542813946593 0.3107351667993122
1.647396700162622 -0.9259158730246982 0.3101833640298283
1.62325597826829 -0.983852162145559 0.264665168812028
1.681977138149477 -0.9963053667728968 0.3140362865914741
1.704651106896416 -0.9387263554070804 0.3623672407008122
1.738003391573003 -1.007581790859356 0.370250521315192
1.75753932295493 -0.9532600129355615 0.4185539111370825
1.787671926065984 -1.025350246040827 0.4263228913983174
1.766647454227668 -1.081039044418454 0.3805616443783875
1.805919855837937 -0.9713098505375082 0.4776734866400786
1.833773418932721 -1.042292064126868 0.48845401061433
1.956975262349812 -0.9763279517239027 0.9035533450923581
1.975416634169311 -1.052587214374944 0.9020684838391191
1.973493901953573 -1.091015148520607 0.8355815099835695
1.722013956130192 -0.6450078936781786 0.6643209889767989
1.47550254580635 -2.040938975689493 0.6148859056501108
1.678908285395264 -0.6864830378766731 1.470672044443857
0.1174825386531784 -1.46969563881648 0.5841914422441741
0.6656714962359036 -0.4940312228567493 1.562792732322832
1.172027886377324 -2.232900839885253 0.9343315504872078
0.8538569265227419 -1.803955360103861 1.819619217128797
1.547806171559369 -1.810963678008974 0.3793324961333071
1.252989941331338 -1.76769502707355 0.1826947029851804
0.8740844839457131 -0.2836811766540895 0.7755602208516552
0.8633875191575932 -0.2708041116685592 0.8499585312225868
0.9360636575521328 -0.2676893540773584 0.8239944915025906
0.1813139312593259 -1.307673814080607 1.571337774017556
1.805363449939731 -1.7890311033364 1.246647893031987
1.909299643513503 -1.05018035646883 0.6349708664157168
0.8288122313654407 -0.3271494705551989 0.6549758730561428
0.7723011449044086 -0.3577270553938238 0.61012537436763
1.271886171973997 -0.3876223048386874 0.5729372172881506
0.142004651907446 -0.8129424844585253 0.7301394605351668
1.229334426962438 -0.688712708204591 1.795212107980497
0.4426997016009646 -1.180734061844293 0.1725831720252748
0.3827879975591592 -1.146168945088191 0.2200843275847905
1.655236997407913 -1.055577964422865 0.270024281698421
0.453842896947055 -1.861105999083103 0.4270585748355621
1.582404483152156 -1.129595790959528 1.80393273627189
0.8705237368483301 -1.523616119462639 0.0469154725573987
0.5913959472247456 -0.3376193123660242 0.9754193391425142
1.888560101240585 -1.707107338006317 1.03890794294358
0.03329663475803113 -1.456171343430525 0.8484151037276301
1.768943202667043 -1.052731937851343 1.608121421040457
0.1312260087447596 -1.480227494935202 1.438437056707461
0.5136824053544835 -2.119125209077794 1.09009199788927
0.4693391322155945 -2.096936655235913 1.033126204432521
1.077805666586606 -2.176485689727387 0.6318009438124771
1.514563271724777 -1.384054169197123 1.846908565969646
1.451637008690477 -2.093075987162267 1.291970704440508
0.6959080957291672 -0.5341941257262114 1.62860962775961
1.153208494761518 -1.705534425825217 0.1230646865241432
0.3417743582358319 -1.939365324272927 0.6974864396192602
0.3189371609806456 -1.945051059299261 0.7696580058394226
0.2860020146284401 -1.894210521701805 0.7257743983249508
1.459360709821632 -2.111364151323088 1.21688600021122
1.64793594893852 -0.5263187020791098 0.7623776418081093
1.778434335454336 -1.517708514684868 1.567778245929683
1.783237894701208 -1.583131386830293 1.524939881712702
1.825085935693741 -1.592225435067178 1.449571963442411
1.188730195689434 -0.4687814674408542 0.4049550289086019
1.049355134861313 -1.802930048715683 0.1682353506609608
1.075402219174298 -1.697082060144669 0.1086907737264303
0.9960194793176061 -1.850131496165337 0.2001085431351007
1.194667573193912 -0.4262460043451201 0.4675209951656187
0.9271261637542948 -1.922204540649453 1.736770289521159
0.717166162617159 -1.491198343253057 0.07165287761350969
0.6485466140152061 -1.468454644134071 0.08963848612977943
0.6007919466692415 -1.520490333634153 0.123947541772554
1.415150911073884 -0.4569292062842256 1.445744811735993
0.2206863997585281 -1.265445080640634 1.626443742057242
1.763087299753373 -1.803443641809988 0.6662367481354424
1.710466419017008 -1.852933614454725 0.6370833098220592
1.969697023279668 -1.069993607581318 1.165182873600634
1.297218357483483 -0.3018323253767022 1.112424680449929
1.02399147317609 -1.560242479187765 0.04964532235471675
0.9965722992071627 -1.479522205285934 0.02670261063333979
1.521183017877886 -0.4401291600551451 0.730783573155882
1.58198023644835 -2.060716235746001 0.9364532496396818
1.571689101445488 -2.05876989533934 0.8619318006156257
0.9724146340425948 -2.063187417811608 0.4186521943811212
0.774040782579182 -0.2763847783140287 1.031872122049661
0.1280980283502892 -0.7774841317190098 1.128513446985165
0.1317154598813722 -0.7950166194440698 1.197666590016828
0.3362238564222401 -0.8222173474519371 1.613517101143872
0.2212246346475301 -1.453253232687346 0.4065380772768394
0.2959415600924299 -0.5933034789321909 0.7297197890848184
0.9218055208711362 -2.245529227171733 1.052982839491834
0.8441627947384164 -0.803125199932701 0.1190813439817099
0.7865524417827927 -0.7741071952622938 0.1467906597499115
0.7141051240956645 -0.8050098178562173 0.1513258235769821
1.203938116446221 -1.072806191136316 0.03718558446565212
1.117265476319985 -1.182017502068067 0.009228993137979535
1.078469113109916 -1.112361005827654 0.01263071469132271
0.129194610324015 -0.9274728268654335 0.6289552642859876
1.540031464182275 -2.090591519954753 1.042094112097848
0.8775607570764238 -2.045495991412176 1.593459989754541
1.694007272963464 -1.680483978392414 1.577093969316311
1.465139341557935 -1.579831898068819 1.821496385841941
0.950352195314094 -1.099461255335839 0.01264333605084289
0.4735907231314062 -0.9704180276739638 1.802949060636456
1.644539726991756 -1.71016378897541 1.610588099822775
1.034173137874523 -0.9214715582698574 0.0561243410161627
1.355998169414669 -1.085874185795842 0.08003912013323822
1.013418704548047 -1.905259315851943 0.244715174680773
1.619600633406704 -2.014090128342777 0.8203856051115911
0.9673289816458479 -0.4417154583469225 1.587884941365551
0.1795145200688659 -1.226100123040166 0.4288324474346591
0.2296136902272505 -1.186193151678155 0.3656234400437242
0.3825805974729014 -2.034303902102168 0.9394965246420262
1.275390945558776 -0.3562824711656524 0.6458407056726168
1.344964150744272 -0.367249635088906 0.6810148468178912
1.4176018800567 -0.4219613894257792 1.374113257144709
1.472276815222031 -0.4323038658878029 1.329131648526397
0.972668199250309 -2.244243407033132 1.103600290728014
0.958457890408269 -2.233022175965305 1.178722283700454
0.4028603439108372 -0.4478629768640057 0.9993463638307615
1.848557279921262 -0.9931867209966302 0.5374013808708825
1.619506636905292 -0.8872539798653897 1.696151457447871
0.1356381412380728 -1.580049218449181 1.379402280592395
1.899662351511523 -0.9399814870930178 1.307402301435269
1.893123911316127 -0.9890290068379174 1.366365691302255
1.912556797297558 -1.06192097838202 1.363134098279474
1.879546200438919 -1.038032919126485 1.425991124226105
1.701347441092895 -1.781038582484933 0.5244899677348119
1.501859263340955 -1.098813870326566 0.148366255956681
0.3473410267824785 -1.709065812173921 0.3972605498461638
1.218568671212922 -0.2810416199776208 1.115530921179674
0.008733842757730037 -1.151031991417064 0.912840727496892
0.5995369733773984 -1.999733942863015 1.526809623324539
1.632176273271932 -1.014201866492213 1.738073437908624
0.1799652805546538 -1.241300328304754 1.572247651473195
1.738335492139162 -1.11359043990877 1.660494612365111
0.9129064027640508 -1.138763924656417 1.989970323223206
1.585097984808204 -1.513734338945713 0.2331202528204006
1.531691499826017 -2.088368089539462 1.120179430247912
1.694144147580549 -1.406612170595524 0.2974072798547993
1.847615482507899 -1.624572672059955 1.375823505330317
0.8545727505910981 -0.3543767125755802 0.5796313021258169
0.787882950639758 -0.3880827297563842 0.5394514394480225
0.7159312374328837 -0.3939509451290318 0.568160963103022
0.7326254430246597 -0.4267468996532083 0.4992354055530325
0.6610195953894555 -0.4350532106356669 0.5299425399008787
0.6787082836276708 -0.470562368748221 0.4621816180352902
0.6080631710555124 -0.4811453720405123 0.4947791738435388
0.5930072696799011 -0.4480990050602943 0.5626080570228786
0.5397820245687228 -0.4965981320607497 0.5303351828425034
0.5553160459165227 -0.5309097655097864 0.4659911839290539
0.7520620125807015 -0.4611558173800095 0.4376374746295172
0.4873999780705588 -0.5523997641109817 0.4994052253513604
0.4774452936837013 -0.5196201197998414 0.56013432788465
1.522897402539845 -2.09639208862751 0.8990111950469597
0.6355948564330913 -2.053493816785703 1.47075107830904
0.7153161958309311 -2.071352685358673 1.494302435658498
0.6934365967564541 -2.096349860826232 1.435558024689195
0.1507579643976784 -1.352788596533941 0.4820980117931504
0.1128674451422488 -1.341712737448343 0.5476897039627657
0.9392936441083117 -1.890102495825153 0.2341125845186108
1.424096537940589 -0.8636761282764041 1.819082408945094
1.89623265699224 -1.112836957240457 1.421845142489011
1.858787162919266 -1.086554311936714 1.485561649905136
1.828424475367065 -1.137569976519494 1.548700627330584
1.928230775527465 -1.137273291869281 1.354514198076314
0.907333920440183 -0.389423827694085 1.500820975357776
0.9603854728726186 -0.3577046571455611 1.449710696293465
1.126588079167548 -0.4397574318790298 0.4277391861944367
1.778860154134808 -1.650921844216038 1.482326170896328
1.255116778932868 -0.2843339305252629 1.049035409370476
1.67834616611657 -1.078741426455377 1.714504709503311
0.5618241979245198 -1.336763770972505 0.1053078660666897
0.1490607183887908 -1.424024807119739 1.495598330826423
1.879238939390924 -1.065844832199367 0.5606530281986177
0.265588733166763 -1.897458485681616 0.7964377233688198
0.2318129726977012 -1.839724220797001 0.7507731264694203
0.3617528213889492 -1.920314508660427 0.6214250424627061
0.6259663243692373 -1.375007764918569 0.08104849518366575
1.116619538605183 -0.9543926686406752 0.05183535772412795
1.089229582045585 -1.022389598051061 0.03034460419558715
0.5170347759603018 -1.36611085951763 1.867907172841866
0.5034807860910724 -1.450683251601149 1.844508675352747
0.4508136562511225 -1.480928010277512 1.803160391148
0.5127101501995668 -1.522931899216468 1.829491881016061
1.036443315331811 -2.245790175767196 0.9158940512617413
0.9571905178600193 -2.245006888166734 0.9098410251851747
0.8454133804414152 -0.2620239169086478 1.002497257079077
1.863146934134166 -1.408294996495589 0.5205001937651574
1.42110281167452 -1.702331684326663 1.786173307454545
1.467616313745081 -0.3964698216696548 0.7701713294672943
0.4845777522129728 -1.28097490032411 1.856376355369577
1.509334773352706 -2.091407782941692 0.8194147529312157
1.801357698595266 -0.6526347340561387 1.031314181227031
1.811239436573413 -0.6750117996474055 1.106203323880827
1.774607791508389 -0.6381731785648505 1.160158390061395
1.819094637061688 -0.7037068217920884 1.175064956459827
0.4985541565036063 -0.3850551622530942 0.9794453485758349
0.5101148135717406 -0.5873399677150964 0.4335247704176995
1.141841459401437 -0.2677168554809929 1.122477852645782
1.422843071356185 -0.5940164799187807 1.625211450941136
0.1825118865696956 -0.7925782422184684 0.6500306871906973
1.48438825378725 -1.320417228801441 1.872014583295981
0.542243080550677 -0.8352721262349589 1.786421892764052
0.5654020755948415 -0.7667167129206194 1.759974939410818
1.639785573470259 -1.391376954886555 0.2445617321009366
0.1327128254290403 -0.7557221545627473 1.05918081052697
0.8902370313435449 -1.964829470033665 1.690630812723492
1.143067333670248 -2.222413673041269 0.815762689666635
1.172072414011192 -2.201482886930745 0.7449090354122733
1.286329744799655 -0.3339931887393507 0.7190252698781228
0.1134844533639842 -0.7999466901861858 0.8925653505693948
1.856371671922258 -1.115615919670508 0.5014335766589652
1.942067273690676 -1.105823794442809 0.6971428165089238
0.9060172785716347 -0.8345430140682295 0.09525542780660634
0.4214683086591159 -0.5832151379580266 0.5302138466643335
0.3935544165238462 -1.812529565276701 1.561946832424451
0.4527058361916302 -1.816672541501944 1.615915033887812
0.3398177496419399 -1.754612093215429 1.556350637361827
0.513206362884715 -1.876221528938331 1.608997989781749
0.9280342303959079 -0.2578236155570176 0.8979855394615944
0.9870880896476957 -0.2593875262720797 0.8639110237171848
0.09533420071115473 -1.524182332586952 1.326196014835026
0.08581884581941646 -1.566573125294015 1.253089457865467
0.06104932828893705 -1.484321287957324 1.251922944773525
0.03852652626005715 -1.447394706636216 1.191321951397245
0.02441083694506063 -1.373078189430748 1.18187232944077
0.01077917702245346 -1.331103280959574 1.121919732632654
1.207783021237617 -0.3536234313021839 0.6084195316733769
1.730041733309552 -1.349996303076063 0.3239528071225313
0.117353785964622 -0.8185239595955315 0.8135486996401071
0.3359612189629492 -0.5830938045187857 0.6619339950429799
0.3958096113860429 -0.5312880596575947 0.6558966418127099
0.9728942906295249 -1.869617150326217 1.784436018768351
0.148752714502301 -1.3477494098826 1.515580364056276
0.1987022425552246 -1.464884959607353 1.558342509619786
0.3453379311981756 -1.596937736734369 0.3283961119069149
0.1882654671401788 -1.153749570777873 0.4239592869966532
0.5677851209222956 -1.490084069275355 1.869223755993836
1.375234793169158 -0.3272930395690535 1.088378250534751
1.412770229881261 -0.3535295092407815 1.161125406195599
1.453172970107055 -0.3646693530270588 1.104037996399506
0.9679880205255724 -0.8714976143915982 0.07495341887076978
1.816398912315438 -1.068454098012575 1.548209723957668
1.844131504169052 -1.71780486896918 1.261917178203382
1.37068565146834 -0.6291562759141901 1.690756989149408
0.3839299755555692 -1.224547382784853 0.2127199422963023
0.8768264290851712 -0.8428502272141709 1.905017863883657
0.7698206046829069 -0.5196317449923624 1.643101592323138
0.3298346507816934 -1.40710553583322 1.725393862200158
0.7687430020519317 -1.135720273674942 1.966157515652141
0.6875689939368423 -1.129923687643412 1.942320829474339
0.9094461693730225 -0.7676164781220283 0.1287330250839385
0.8059387771949313 -0.4240024322127983 0.4707852422569562
0.8218039821655101 -0.4590787057075502 0.4146029676683642
1.359484879642967 -1.754599571727861 1.784952160020049
0.6103372513737637 -0.8102923754012437 1.809209581754174
0.6375754061411348 -0.7420802943614597 1.781451205380282
0.5268514333503673 -0.9119510343237012 1.813543687015382
1.726390870013639 -1.925265266870233 1.127957505913105
1.77059317663913 -1.867589278403512 1.157383732698912
1.538798827109658 -1.451398885458787 1.818006303668386
0.8904080467638495 -1.44899515700994 0.02614655554725542
0.9546263646328184 -1.416245343752228 0.01496004198090028
1.038523412991226 -1.425551262041006 0.01628372939789313
0.9533087993884544 -1.330444595230722 0.004335097091587858
1.60523665479702 -1.453329491934111 1.769639986876935
1.376398694273702 -1.390156869223541 0.08420522224763305
1.302745032363619 -1.390092254249169 0.05728073867214467
1.75166335643241 -1.415935087862817 0.3616679976589587
0.2656323690208751 -1.2965750922498 1.677152082882443
0.4486817135926249 -0.4725655826831221 0.6972726080381854
0.08085826095113668 -1.601955609397473 1.176934204019136
1.183544397464301 -0.2844911307981504 1.184672893658036
1.646150348570528 -1.6077121025866 0.3258102798875832
1.701538896656496 -1.913901207192338 0.7410050896898892
1.462936019092501 -2.127925927837836 0.8777858131931372
1.232874943433468 -0.3049561934829671 0.7705191413545429
0.1417306423256399 -1.711841942257126 1.223776071217203
0.1773590843045633 -1.778337913217553 1.210049930446774
0.1836650462835976 -1.810170932599033 1.140732972724832
0.8319430967406749 -0.2681782523465088 1.088220933465533
0.7102165714242052 -0.5033311271899192 0.4012419863589458
1.987912386512583 -1.13010288889329 0.9017462503347645
1.987163625944526 -1.09321301570188 0.9695727561754863
1.993138266601904 -1.139251812265002 1.037566239156701
1.981571716973845 -1.0634870665873 1.041591947619799
1.983042705431716 -1.163882426964804 0.8381024925700822
1.562305940242775 -1.103425705178517 0.1861646323332506
1.613429288577659 -1.155859244994692 0.2158813698411839
1.270251532145059 -1.318048007138497 1.960381995925438
0.583313451940616 -0.3421268343916837 1.046245387172013
0.638822657178566 -0.3233503639129309 1.10426590512795
0.6606392499444276 -0.3280491287614943 1.186657098295992
1.485996256649747 -1.173721865767262 0.1293741993483046
1.858096341613886 -0.9710307811678114 1.431099574869918
1.619778181635746 -1.320070853437465 0.2183574467399859
1.269263308478795 -1.319738116083701 0.03946167912355025
1.299558144187703 -1.516707889429608 1.916041385509859
1.117360956213068 -1.304772677661178 0.008422287594875844
1.730935809942818 -1.183715472880214 0.3207804455054741
1.78404020635047 -1.167607621631157 0.384782598740382
1.698659831830499 -1.118701196493423 0.2966970328625643
1.180522599173425 -1.190507945639288 0.01823002355153824
1.960898653469791 -1.316809769945807 0.7312803832993742
1.963859624628284 -1.383592800868217 0.7695057754137695
1.906673311305983 -1.315878441822867 0.5833424218036651
1.732750155398879 -1.184594519339449 1.677347276411798
1.978563817792017 -1.182733090434511 1.194648445629088
1.829653784301596 -1.316052904658193 0.4456430644609413
1.419415684818257 -1.314481565615205 0.09449869628793761
1.936520756904724 -1.182707146874292 0.6559061991188955
1.417529381565062 -1.182122447500471 1.906124634582115
1.380948596152036 -1.122916374371834 1.915820899077431
1.345148558379018 -1.182122447500438 0.06390966754508431
1.039168988720175 -1.317982497931967 1.996917333733128
1.990804978853408 -1.317478581140635 0.8827305028298273
1.038987964536793 -1.182122447501587 1.996931580645384
1.906097723944759 -1.31718679375804 1.417699472595599
0.5370945044913398 -1.233390318998054 1.88625200745888
0.4113780409416945 -0.4450172122598204 0.9256568714916331
1.042983242944359 -0.3599725072712318 1.453876087729821
0.4763614786603153 -0.6484006151280904 0.3967746034101941
1.858911104711191 -1.517233622580956 1.436872870714194
1.364856039313719 -0.9573356383931012 1.883870828810145
1.397239764416048 -1.025717085545955 1.889886365695465
1.987745227425591 -1.385027107821701 0.9217245514144191
1.310959526815688 -0.8134286232596437 1.84422130137399
1.960184433298462 -1.518357721219925 1.077652994230487
1.110302367553634 -0.8524199910020653 1.910913565689558
0.9908708736320123 -1.512158624641929 1.964981613595622
0.9554927482351159 -1.443699583579565 1.980050802694146
1.159979539729175 -0.681825585226303 1.807207768337625
1.122745550172274 -0.6253281721602296 1.771180029186588
1.159102133046903 -0.576901674646581 1.722236218744497
1.196216450767203 -0.6323826061241254 1.761608731062279
1.133309102771221 -1.646870301111611 1.908142415711276
1.21107429067945 -1.651308261503644 1.891290818455508
1.918004411647618 -1.646569722938028 0.9994041440054894
1.915541169787046 -1.511475408612993 1.305638638126197
0.959234191134232 -0.7220261279314286 1.848281639103688
0.9474397471585867 -1.573459076307622 1.944781268747146
0.8695661705570756 -1.565515098864934 1.939913420760181
1.95145948991846 -1.515424327604628 0.8441963884894376
1.055280911388921 -2.054669454030891 0.4088561168500194
1.053005735741656 -1.999506341877531 0.3401283189408355
0.5630116269446728 -1.947421961201112 1.568017402769363
1.045342790302791 -1.761695282886805 1.857969678274792
1.325804517076026 -1.770779283385082 0.2109243669648785
1.268475774063514 -2.024571451010606 0.4273222319486104
1.257043414998066 -1.978437942491369 0.3649355570140356
0.7656498750845336 -2.116755520615754 1.440244121407906
0.8418604273067856 -1.154851332646676 1.982821757313753
0.9137019560126373 -0.9810844714213807 1.959289886370766
0.9816129516903513 -1.03680760473885 1.976837201921217
0.6800027517339733 -1.595642959768695 1.882118305820998
0.6360571994056459 -1.648286700768017 1.841969917447688
0.8978182955407574 -0.9107213856657451 0.06488026374734668
0.1405924959343505 -1.69550684821285 0.7491167798534474
0.1743294898645044 -1.715153053637451 0.6807808818627158
0.275120081309098 -1.218984004155807 0.3118233428250676
0.2683104747733009 -1.133332568114297 0.3284204075385238
0.3224826643986323 -1.175296102375235 0.2682967899214244
0.325984698007057 -1.099463700975521 0.2767834381353158
0.3864158406906568 -1.06775485680315 0.2316893940431343
0.5246944699022336 -0.7286666789789737 1.708728595057141
0.6077517982326914 -0.694200486057693 1.732958558522792
0.6270135151399072 -0.6300152077649225 1.690289750401192
0.5876026677791706 -0.598557899900516 1.636829357516687
0.8906582787154879 -2.090600616546527 1.530504468829564
0.02232393040586944 -1.328885485768156 0.8052525145782498
1.092493437246577 -1.917117569726714 0.2608118560013039
1.086402829268819 -2.128484663992794 0.5301071970929845
1.479277445664181 -2.070736062820352 0.689057167209524
0.3420809775110999 -1.855201257017046 1.448189690144962
0.2940764423258411 -1.84112908217766 1.390177317285943
0.3006137255311612 -1.88573491807847 1.326649587509855
0.3304603264393923 -0.7960474163350841 0.4120853145971752
0.6130350243532401 -0.7392863718229432 0.2322567501977439
1.170017320602967 -2.09932962603826 1.499733225860255
1.154840613251951 -2.059876486322594 1.565795423620171
0.7757938451169628 -1.794920367771096 1.807956306306707
0.8159167516027211 -1.742345868727193 1.850710822316709
1.283832479784309 -1.082512822690538 0.05586697502078752
1.154413697124054 -2.224179841656054 1.164712010040151
0.6281502076093202 -1.873441320129154 1.68778532425069
1.260871552715933 -1.929650676060198 1.685580769504581
1.325681185242345 -1.980007650253769 0.3991501051426295
1.434228836845683 -1.101176379964681 0.1115762005826113
1.279199372061853 -0.4635351663250803 1.550927196672072
1.203182849908007 -0.4477329583695663 1.561323724259729
1.870666046159749 -1.702308416326184 0.806718514634618
1.830142411771422 -1.758315409642188 0.770917000852048
1.844069100645945 -1.763798640079187 0.8465128318473382
0.8114078235844926 -0.4733286791175743 1.601011356226827
0.2486597209038066 -1.513307166269519 0.3948908187783218
0.3012485513367075 -1.525747668843795 0.3399169475602613
0.3536071862814451 -1.526680964564986 0.2889275886237758
0.7038601295167332 -1.900215293060748 0.3003420480119734
0.7804071567459236 -1.916035273243971 0.2871353578789175
0.3481356613604998 -0.5585801853063167 1.311466729939234
0.3309416386629667 -0.5453272103514606 1.236214243122528
0.527109644358159 -1.793987295754812 0.3068531659177116
0.4793789640815851 -0.8109647022786998 0.2677420233865623
0.6157353756513992 -2.150705689316432 1.202657246865835
0.8135162287719386 -2.207342171941756 1.220725551059231
0.5897606614211136 -1.811505543271532 1.718620351755848
0.80371612881875 -0.3660116472669517 1.424307947305273
0.8806816637839532 -0.3588912371526444 1.437822232669025
0.9297975700773463 -0.3298238859351947 1.385159107301839
1.711669222109458 -1.719257777975185 0.4771959677738592
0.7562644001910136 -1.750751436259425 0.1694333521806473
0.8433965150741057 -2.179569268522997 0.6662690851499001
0.7937217047617574 -2.148977816862947 0.6136217530684036
0.8242836655489247 -2.123096254718711 0.545217964511308
0.767353992425414 -2.169716884451685 0.6837774713685121
0.8988441880858604 -2.128954486335812 0.533945805011756
1.62833613382986 -2.014178665653095 1.145686889885124
0.3061646882051376 -1.921830180046383 1.259300538536601
0.8349008321328899 -0.65759549016955 0.2114575715269773
0.7572441459891328 -0.6802599573210037 0.2148465888047164
0.6295929445379944 -0.5245698284480729 0.4198709803275582
0.7957890347247523 -2.22879438013041 1.016107237083896
0.6207099337450814 -2.172023123821885 0.9224603019217075
0.5730174767372022 -2.144572766712633 0.8679943566197299
1.469992704738615 -2.006126688460653 0.5446108384139908
0.1654482229143921 -1.786111194431355 0.8730822369853604
1.32406817654674 -2.122339714764693 1.366064528456288
0.4212087240913859 -0.6236577470392197 1.522203064993009
0.1779598648299142 -1.10029533468212 1.549398333954162
1.344814459990805 -2.163679366688084 1.215158088552837
0.8080703584498333 -1.424174244668683 1.965829356143474
0.8395740948886712 -2.227906297313472 0.8659746194041368
1.352512538113813 -2.175754690062584 1.136796068290308
1.449064951358184 -0.8049766245430452 1.774786980245906
0.3571448326296643 -1.993647125768508 0.8163530938962101
1.713045489458044 -1.857480932099322 1.350047206958258
0.4721614042590456 -0.4882496353434146 1.375663145373321
0.4463578523016083 -1.03041571681898 0.1967172883275841
1.0974906113632 -2.094054417600204 1.527321269081392
0.8825291220883338 -0.3007518746075449 0.7082319598009879
1.355125061099842 -0.6065347653048665 0.3218859367941335
0.6321037909506109 -2.170931434267038 1.128598883144235
0.2084592498054054 -0.70305732637436 1.272611358069716
0.1797148172109705 -0.7679356274957337 1.307808641299812
0.6310820398611197 -0.373759402023351 1.310003150217045
1.559511479271183 -0.9718592552610745 0.2192409906508616
1.814276032594289 -1.101143679105377 0.4389328574295037
0.02157837128585527 -1.099786626266511 0.8581301342216634
0.03862674371288766 -1.051706411254273 0.8091044401819292
0.07309178270642469 -1.623299394805855 0.9614160842937332
0.3481616886653057 -0.9658718743490814 0.2968797939964817
0.2938354284127883 -1.009192355744524 0.3341597216274927
1.917133582141191 -1.503744091783667 0.6926241252249143
0.7424898549816308 -2.040944175007572 0.4449361863405157
0.7097107118628928 -2.072142259695787 0.5102916847600445
0.81872741521951 -2.053572500264504 0.4330683578899008
1.038273682667645 -0.5177688551918102 0.3200200916292127
1.110264266707139 -0.5149447648958507 0.3310189891831602
1.01140050641781 -0.5709668373524852 0.2659809318019516
0.9218370259489092 -0.6651761532339149 1.807385668526019
1.690295277249033 -0.5765086971483283 1.264389665438797
1.584493615224521 -0.4847057771040034 0.730385523081972
1.00977555950754 -0.4741521274339692 1.630844289084936
0.4931042194846184 -1.610829393156001 1.782852998161452
0.7920502524866719 -0.2792572984164291 0.8799353930944948
0.07435945320465431 -0.8726168642491569 1.027776734496235
1.413182926138349 -2.053326590789795 0.5711104360353393
1.427181582216231 -2.152384260141632 0.9432677969414461
0.3664142221245194 -1.557603588112828 1.70989372067517
1.567507457804503 -0.7902180799946958 0.3169656879976623
0.3127218801590326 -1.182863326575651 1.72328518101049
0.3101540226317838 -0.5306982525117131 1.081960500054522
1.003450696169505 -1.674195000168478 0.09443570381335653
1.050742518232708 -1.621755904345622 0.07305731329948351
0.2359672093401738 -0.9052985424003458 1.545375833646149
1.382893829484324 -0.3558277591527589 1.232052405807509
1.452814635860057 -0.3862299127349258 1.221043303216836
0.2754696181305278 -0.7639149714090689 1.488648207535678
1.190454388268152 -0.665090980321311 0.2115784346633337
1.114918819223891 -0.6696233962973769 0.1938011021696974
1.953202990198152 -1.055445346077597 0.768585769421074
0.6856938025558417 -1.336195094688352 0.05459954521913846
1.596256581686783 -0.9490084967410939 1.744232627450004
0.5132649235551672 -2.012300566048026 1.426599123722847
1.191169549403727 -0.8361469668731544 0.1099551301465269
0.7179872980753297 -1.020908308206696 1.931657572665209
0.6285119607645577 -1.139315617712543 1.921816469923732
1.573588495011153 -0.4409412869098513 0.8718585267614214
0.4733853435848069 -1.200757159197188 1.848676703037368
0.2578380522729007 -1.696649600810233 0.5003003127457675
0.001481869584407325 -1.199386587168292 0.9800043586530323
0.0001604840472837488 -1.260842648998937 1.014261111531844
1.338768740459478 -0.8337371812276294 0.156222181972541
1.404817834240005 -0.4050353143471701 0.6504900558198005
1.284298940049916 -2.020896108422205 1.569994125150422
1.393223342384282 -1.922790117531237 1.626680828457707
1.674527226364627 -1.973829576807224 0.8547975047324673
0.5669795756132945 -1.180066337895612 0.1013328786649493
0.482899937053863 -2.073875825825663 1.232026180680508
0.2214556801663958 -0.6268148214855103 0.9257775281016976
0.8223433464516158 -1.580319140281406 0.07300087431878222
1.667482311164765 -0.5065859287457811 1.042460369091325
0.5563624683840641 -1.568703612373711 0.1623761297565194
0.6250364515231194 -1.594061926011416 0.1391726489109788
1.551292663950968 -0.63075152868119 0.4408866577847008
1.610130493076801 -0.6425818182530347 0.4912918971541039
1.563134284506846 -0.5864466402923444 0.5074792223330624
1.720634238335482 -0.7518563185323059 1.482223150784419
0.8848485838294965 -1.293640702345033 0.007611144534180214
0.05912377998802665 -1.083370583025463 1.294934867410936
0.06872358060400008 -1.008796588162879 1.273029567620611
0.09967796688411468 -0.9571089053962123 1.321923971440267
0.121326470640142 -0.9789947495447868 1.393050865700609
1.530755968184561 -0.4789060626030404 1.351727510931578
0.9726944756930987 -0.3128886684947066 0.6520391391166221
0.04110071733914211 -1.287315184918882 1.281282318475516
0.02324617699535558 -1.265255374281949 1.213820585541545
0.6870522093271454 -0.3444796345856885 0.7134750479750305
1.465924120129921 -0.5412764343387754 1.529741089361208
1.409900000724463 -0.8350989689009358 0.1876951780279654
1.047244658590828 -2.20080183254698 0.6938238783641981
0.9053070217919794 -1.305211057942097 1.99397433516113
0.5969478990587711 -0.3405966115440561 0.8973623802316661
1.628514824641482 -0.8042789707886625 0.3625818646095225
0.3538096832403214 -1.870081065424352 0.5550982728419378
0.4114168798608429 -1.881956537228245 0.4958166546366883
1.739791508416804 -0.8383718909484994 0.4677680731926392
0.7490848846845701 -1.141242355188709 0.03811987254058236
0.8187697715261202 -1.101320651666811 0.02786314972298076
0.3325901083154548 -0.5403515359042343 0.7742499304803108
1.820814118582582 -0.7664871198637457 1.304104385824741
1.861604089025734 -0.8042949574500629 1.242869118703251
1.894817261130639 -0.8826577087567582 1.253696098209702
0.01611075194123257 -1.072071217329354 1.017415391230034
1.833230019859796 -0.8857715015351637 0.5839887803069559
0.7337598379100069 -0.6294130045601358 1.737555392618898
0.6953834504604315 -0.589284549038827 1.686049452013323
1.932855321703831 -0.9021456534116212 0.9063074051570015
1.241244747214147 -0.4191912113833836 1.501555309710677
1.82248262849269 -1.540009931398262 0.5106978790990873
1.826577290830333 -1.452673148233128 0.4749346923773576
1.562842840756397 -1.999068257433684 1.349434804097321
1.501817866277496 -2.020250228308766 1.393565007177968
1.437442330629618 -2.037311449107337 1.434493831346123
1.839746461186652 -0.7289860516418123 0.8471263706824923
1.875172544890637 -0.7688434505811658 1.050610192856848
1.628641825757984 -1.814505907011829 1.534922925155038
1.00953293328546 -0.2714850415610039 1.205955333249966
1.029278366814233 -0.2893723314930243 1.276291982756546
1.325160005521657 -0.466123381264733 0.4710307972959852
1.311058612354683 -0.3740698190509669 1.368766671192739
1.766466180946719 -0.7065269086813933 0.6577039403125573
1.720396167350151 -0.6839287656843391 0.5992597852129663
1.220615493391421 -0.2748647705877432 0.9790217151614948
1.87864927066079 -0.8722141587311731 0.7080182928605525
0.5785310973648983 -0.421233161178402 0.6318838621016207
1.831186627721616 -1.687620806585065 0.6570469134989376
0.4977469385502326 -1.72726885468205 0.2789200442289215
0.5660681679156905 -1.753610702091696 0.2529528623690047
0.1087043843338272 -1.207187238448911 1.451396935016874
1.586324916243111 -1.876276400293027 1.513810240291606
1.559500829716766 -1.833544823738455 1.588586663316717
1.632907198212469 -0.6249167511617391 1.456836305992252
1.622410130812189 -0.6669749687071014 1.522194831407079
0.627531936043322 -0.9852216957344162 0.1105282517569173
1.564745005777828 -1.856567959356802 0.4404123043429875
1.726897931848174 -0.5778876141367877 0.8589881655884586
1.777570945325373 -0.6318688368682455 0.8846861233363931
1.778197129686245 -1.878001274248775 1.004860749942503
1.038767826397469 -0.85623127796706 0.08160833562963943
1.522291843056504 -1.898295854388894 1.554006963727726
1.406511143062444 -0.6620644675949442 0.300657093907682
0.4145208182788243 -0.453607773101439 1.151570276461625
1.123306837811285 -0.3143358659537124 1.33064792757311
0.2517893678537215 -0.6562241918358541 0.7040082102789305
0.1359829616349073 -0.905961190247371 1.367575645002234
0.0562030864503853 -0.9869399269549164 1.200116925680304
0.1870631008212319 -0.6811131946697848 1.12450462109814
0.1051141619893116 -0.8656903957934843 1.226904087760752
1.484672499020171 -1.819472115413352 0.3360767525834154
0.3598916413897894 -0.7541343316432946 1.586837735820133
1.596866609817651 -0.7663564941642925 1.640186855025726
1.13491836480138 -2.189252558170313 1.31559731749469
0.7069996595000902 -0.2962353273703221 1.066960807272167
1.942105113162306 -1.08967399412135 1.294505564620498
0.3253068565286871 -1.98777290912872 0.9780843273307762
0.1522138445748856 -1.774447779464412 1.078823608673742
0.5337145984015459 -2.049097516467667 0.6204989019365348
0.3130568646559545 -0.9562383604201814 1.664690324824327
0.3908189333812832 -2.035083506746433 1.111992479693982
1.707185550806629 -0.7967247039754948 1.54261413798778
0.6379436155727445 -0.4622622743089275 1.498381831549386
0.2258280219418489 -0.8894516968254693 0.4797474945110822
0.4155166261895573 -1.016184698609602 1.776987509922058
0.04834666762373052 -1.146156527346248 0.7109109684468273
0.1764575341789372 -1.616284248384963 1.433143921086775
1.644882026993651 -1.912668992076677 0.6192153125444231
0.5571382663527997 -1.951003355748523 0.4410118247222882
0.4664932983820131 -2.017183989548101 0.6439110707846196
1.234935150975124 -2.221694840996028 0.9752086543729543
0.9896392339485578 -2.178214044632435 1.371902328406161
1.000966264635556 -2.203844806477674 1.300298437372263
1.853743293131785 -1.764706533710191 1.078737370978049
1.22771930481907 -2.135788394522578 0.5956204278875676
0.1447647206387126 -1.541953279800734 0.5718225842604312
0.9034291811805655 -0.3062941977279404 1.316375466353813
0.3517630644291232 -1.941033429062016 1.319783794587016
0.8160348031853356 -1.956860745127204 1.683011488453273
0.3018517516524502 -0.6980052415986417 1.455950446898206
0.4129592092890936 -0.8990939900491772 1.729553344329191
1.514909801479902 -0.4021591845284859 1.126624831532072
0.7535096197027737 -2.038437431604817 1.563568016183786
1.104156302174098 -1.857945117881356 1.787117652172559
1.38286085270761 -0.8969913410915049 0.1463007237910838
1.310015940671466 -0.8952262232895976 0.1179423579559987
1.235238283783443 -0.895489647906127 0.09502190076173755
0.6730199635106682 -1.266291849337894 1.94489080394646
0.527661974913916 -0.8451209504676388 0.217076156125291
0.7051280265727844 -0.8751163642274037 0.1210729387957958
1.08315952744202 -2.051929517464435 1.591602520291182
0.1372619512761687 -0.9866514516401801 0.5683397153304793
0.05404311588743838 -1.530170506328008 0.8366902918257408
0.08464391026805873 -1.450300982603978 0.6507110861213441
1.179013854984305 -1.764765852392329 0.1615668440868665
0.9141061740580059 -0.3753000478859015 0.5230070813558758
0.4934265562297406 -1.345549900392616 0.1431140317395195
1.312811135158874 -1.932184663472784 0.3391117502609525
1.496636123802998 -1.823176106891156 1.651783484773151
1.489946306083825 -1.646209436119495 0.2234881199333216
1.534964575374463 -1.58243464695931 0.2232760409286583
1.304200674634908 -1.710804905147776 0.1662609587266431
1.293024330828511 -1.522623441076671 0.08358677392891256
1.263854606107973 -1.454962765985591 0.05746564444836155
1.227818047724243 -1.389325735555151 0.0363157796543877
1.150729769140808 -1.383539029544778 0.02048590398963746
0.8189362226640171 -2.066728785822512 1.547877722622221
0.539426232871437 -0.3743048403934851 0.8549834751667081
1.784271257980049 -1.317543504880815 1.616730466942251
1.990790645212379 -1.317569568214138 1.117338189908452
1.737416578989944 -0.6352835442588527 1.279893672797029
1.195785908587816 -1.317088818186154 1.978349103578487
0.0737447025207858 -1.079921095997681 0.6636604538489977
1.007201401065119 -0.3305282810892863 1.393090190600168
1.46472948253821 -1.586009386017686 0.1807782958394073
0.1616308871651291 -0.7536215853579125 0.7747319371906456
0.2184424466833317 -1.126434215704486 1.611473047488683
0.9693445991459521 -0.5164683120696427 1.678963555134235
1.153710974110032 -1.385198862041681 1.978822866580455
1.073923487231617 -2.209344200613895 1.272385797691444
1.28461531730172 -1.07105684058868 1.941792687833759
1.609720478734918 -1.767454119392125 1.600401675660039
1.337542500473329 -0.6573637825346316 0.2686673984276695
1.075867941244741 -1.383184379139491 1.988183169581689
0.8773058267506427 -1.136083783437238 0.01411499886919743
0.4940225622441554 -1.272572898407149 0.1377487044141186
0.5721174028661207 -1.561459955569452 1.848474619035031
0.1661346304882023 -0.8627115694509435 0.606711025972248
1.107560509668664 -0.9835310971132393 1.957823084162281
1.027164988013958 -0.9747972559974023 1.961002348134302
1.25686861396773 -1.584041878174537 1.906881766706071
0.3011804667900859 -1.947726337449396 0.8424271024772068
0.6432282527027793 -2.171748363363093 0.8480333096762719
0.04324773415411287 -1.061192565019397 1.221307149217567
1.978590496265104 -1.31686222649834 1.194653752307276
1.936121489745323 -1.316389386645745 1.345353450508025
1.59454839473957 -1.040446130404934 0.2237272502204304
0.9159931449290086 -1.506690306638884 1.962835881538862
1.801683242363187 -1.384875169060407 1.582333811215676
1.144488724998544 -0.9188948544181907 1.932465758576444
1.936105236523695 -1.582174689112078 1.115615578821421
1.872866026093173 -0.9132198259471327 0.6468937626475109
0.0184050154941463 -1.380891683953471 0.8609365128267764
0.8315942681002381 -1.769228795666381 0.1621211500377011
0.2929316502582014 -0.7736242523084521 0.477390685306195
0.04661368877619909 -1.550221099754032 0.9696382998902728
0.8678529092028826 -2.241226022668017 0.9971507229684817
0.4493967163179117 -0.4717421857034079 1.301911905172342
0.8867407286210149 -2.223293799549878 1.199678534661249
0.1062644045946993 -0.8015348068425547 1.010754349435841
0.8527980443461538 -0.2637059032778387 0.925464511655864
1.664001336673117 -1.96534751510701 0.7823301639488384
1.678534564908512 -0.5248826611762643 1.117455051664882
1.950346724766248 -0.9401032693361721 0.9716253801798692
1.529438248361553 -0.4491723462865698 1.27994679890953
1.719731029237991 -1.886372036799583 1.277520947554546
0.6097843799138645 -0.3598295165822168 1.23521964265882
0.1796655464267636 -0.6791890339518947 0.9649824998046895
0.3601561355617759 -0.6589334052788347 1.491161999492515
1.123993159686789 -2.191337860867507 0.6861389988414101
1.409613711883325 -0.3816889412490654 0.7202634948956512
1.266109751441675 -0.4245118367193178 0.5022501707974821
0.7015418146190939 -0.3661610509322615 0.6397897507149853
0.1950894072698773 -1.839211075953649 1.070350875505466
0.1082509601121169 -1.523571127402446 0.6395246359169697
0.7913909571153368 -1.514600592822079 0.05847528258417511
0.5953681225860197 -0.5123914187863317 1.540561397715742
0.6233598472729872 -0.5443767734418516 1.600198348461107
0.4891786630478555 -1.921084272620559 0.4626849520479079
1.238201258733352 -2.215771902095441 0.8973121552431845
1.498177534390279 -1.869544292865655 0.3933831411785379
1.814126831509671 -1.818596222233982 1.117880610268472
1.305149349540879 -0.6376083349985369 1.729287544876172
1.642424408541525 -1.386225135392847 1.754144277838977
1.810704248696491 -1.750897532375008 0.6969153860617721
1.016333059380936 -0.2710435129078662 0.7965855768351524
0.8902143554782918 -0.4664243332997056 1.611519653659751
1.689735687676202 -1.629728369439859 0.3835009760037065
1.471013503811166 -2.120343850656093 1.143693635393689
0.526733574659367 -2.111458860032627 0.8158600447578391
0.639984691719891 -0.9116771526684155 0.1305595887138513
0.008637556520971867 -1.366900718672852 1.059453575443883
1.087038042782221 -0.5632972811943966 0.2782910870069342
1.13930848673986 -0.6129702769612532 0.2418533931438935
1.978696597420289 -1.384496639097174 0.8448754556186736
0.2232999800969706 -1.539294707875465 1.559504826679702
1.085173367018865 -2.226453916003654 1.19820001884914
1.144481657915233 -2.016280700981127 1.626050267813965
1.239649466394038 -1.931622178334625 0.3086539656153267
1.418466425668578 -0.3918529124171842 1.297438105597274
1.078048192180776 -0.2782409384229118 1.222694422786314
0.7206600516940419 -2.136071595694749 0.6300725468644086
0.7505998029219275 -2.113137549866107 0.5609178758950071
1.766080342298355 -1.850811161402488 1.228356864311605
0.6458781847255601 -0.4045478508275568 0.6002395674826829
0.665893125202706 -0.8461773123638856 1.851645368192378
1.801141234079497 -1.817793907733431 0.8108365748925548
0.9290846660530986 -2.193419161334953 1.323931013392131
0.5959043176017325 -2.141212351313337 0.7939727582730081
0.1815335506219571 -1.765213888429826 0.7457022996338376
0.5633190405125478 -2.137694213864357 1.14597507421769
0.2281077373552045 -1.871678655080628 1.133033772727978
0.5298480293866246 -1.493518189763105 0.1516745814353667
0.8946322358913872 -1.752829981002446 1.857939184611492
0.8732363505455762 -0.7243529737027008 1.841205195491446
0.9222927027275487 -1.264254105342681 0.003125686743062572
0.5588044507729679 -1.851980525144279 1.665556860598157
1.51119392070249 -1.520565350003489 0.1842333870436312
0.6934506314196098 -0.6912430542956275 1.770595977312421
0.339116364142789 -1.992856041358052 0.8932398872518531
1.44650039136056 -2.068039019388431 1.362559737523184
0.331076030768144 -0.7229154149369091 1.524139832082974
0.8845925639877614 -1.437982878116207 1.975368423339729
0.9176829184750102 -1.398646027565258 1.985458399212405
0.4287400221838935 -1.966214718109086 0.5991278067644696
1.38368175584684 -0.7981287680263256 1.80535749822354
1.769139549402715 -1.449785442254121 1.607050352613286
0.3589331937761087 -1.770766564296186 0.4362309555597736
1.963422984696604 -1.383226648389069 1.232522714411522
1.117179261474405 -2.236796888823724 0.8881924828639347
1.96537365309404 -1.115043593033349 1.223249811042519
0.3879551228883515 -0.5067381902375087 1.270116549937195
1.41955737442462 -2.08540039484694 0.6449256558754265
1.582403264787298 -1.383658738710829 0.1981634962591646
1.312296022809342 -0.4362205622969352 1.490136940975836
0.2415417393880874 -0.8212438818760774 0.5091749210962657
0.8334560475789762 -0.5027019693666194 0.3567203055253069
0.1111645118648712 -1.641245055393221 1.238534655054444
1.729304705467949 -0.5798542689876238 1.137910644216449
1.667671705394871 -0.870574990404029 0.35949148646704
1.972119024442508 -1.017281523169432 0.9712473851866105
1.667997469074133 -0.7303399988017255 1.532665809363772
1.653729870814886 -0.7793595500370523 1.592566302503801
0.5949919626182645 -0.8078743349309072 0.1996916931935498
0.647654946385378 -0.8413593307297138 0.1580583353868026
1.915120906060875 -1.645892523817718 1.076307515197139
0.2574447586130982 -1.865299278243967 1.264610112583199
0.8193814925353304 -1.873156186688363 0.2390444679527896
0.8623707527373872 -1.827590706346651 0.195358982999311
0.7318191076790088 -0.3098407149804289 1.210189266579923
0.03724679348819615 -1.504287218674149 0.9081072703082265
1.511904777433655 -0.5318522353778096 0.5286007138223993
0.4611067133848273 -1.767724619450112 0.3355037667101983
1.284884297327697 -0.6073331525253998 0.2887895808600923
1.230426157522856 -1.709821208679469 0.1424055492379837
1.852658160487612 -0.739869763529602 1.112876938267028
0.1918208460364769 -1.806252255218202 0.8065319569968504
0.4979261212922474 -2.099637963947826 1.161360312772211
0.6944098879029585 -1.409850090101725 0.06135063411144426
0.5882001152482705 -1.431594086523588 0.1070025517068226
0.156219828562059 -1.276797406944701 0.4639804842459568
1.680259190332284 -1.976352775557595 1.098280615628124
1.439544112543161 -0.3673312730351653 0.8335761688731961
0.9129381473649777 -0.9068746093093125 1.935246063920678
1.423855309009291 -2.111359954441208 0.7199898110609557
1.960686487754433 -1.449007048826186 0.8064085054462782
0.7283549919122003 -0.7409972336753865 1.816777309586199
0.7825470131828407 -2.084866276712237 0.4943197665194501
1.942429996329283 -1.381195460533868 1.307592999195517
1.185689131738447 -1.973813681432277 0.3354600832713839
0.08399269390109465 -0.9371735244925345 1.251137833460042
1.906291780556875 -1.186178689283571 1.417806233550299
1.897275675669204 -0.8458715495192461 1.177697938548533
0.9291397005924058 -1.810032922011815 1.825434397290769
1.501077009529878 -0.5734778013490486 0.4603338575998326
0.2186190794348968 -1.840618730271185 1.201527597191264
1.158977874341463 -2.164935537958228 0.6290296550248831
0.0964074855895114 -1.396858078452502 0.5975658156983061
1.827940169626836 -1.692033600590672 1.345139640532833
1.212886590716002 -2.021505635011037 1.599548458958518
1.610649715514775 -1.797175125839123 0.4275436203476594
0.1789714754713981 -1.748711894076284 1.277846375929636
0.1055283960196505 -1.263930301023481 0.5530922954499263
0.9431708375066707 -2.216190959877022 1.251486531134819
1.389525878812977 -2.109736647480789 1.330336929079192
1.477531516271958 -1.647668484146286 1.783468842828992
1.633670061261557 -0.5401264161670098 0.692523580681572
0.5062636499347377 -2.112557143721097 0.8894577436455434
1.622008794776232 -0.6041157501310419 0.5573504828961939
0.2659586894489925 -1.845716368828222 0.673954968885159
0.9946394982359836 -1.387742805325455 1.990453524705683
0.4050685293957653 -1.516393247750361 1.758347666204425
0.3931450316883766 -1.442519491054948 1.771144145409561
1.784891518879388 -1.811068015203822 0.7370399537829933
1.349843084891503 -0.4151909452700808 1.425092528862288
1.776511914115881 -1.874751592369621 1.08194324296556
1.969616792451555 -1.028372438109329 1.103559159934574
0.9133341552942796 -2.235077637817149 0.851302055044365
1.119478707645735 -0.3941600395391474 0.496747776460281
0.3053610036375869 -0.7896776621496611 1.552792917835077
1.268630552773953 -1.977977102275795 1.630782818946821
1.501933169528896 -0.3866342800285667 1.051601617270055
1.619891213236237 -1.183796216839589 1.781889981293887
1.733896207640421 -0.6040857606291465 1.210216916039076
1.805286793683775 -1.388864443858207 0.4236061709642821
1.943013468894249 -1.445458816741633 0.7307019338316828
0.3412800447859059 -1.807485302314304 1.505270381386314
1.724293587932953 -0.8859193185348795 0.4144711314861557
1.20087948553106 -0.3865933741069659 0.5372080049776324
1.023830956090529 -1.058202125253517 0.0188549236863369
1.874318668013172 -1.183642619755239 0.5192052778464344
0.5431800747030144 -0.6167161790628873 0.3752863391993517
1.79065201626222 -0.6392419524393282 0.9570582194085795
0.4278362492842291 -1.803323745784366 0.3946393845665052
0.3720229860784138 -0.4965065861406391 1.194660076175609
1.281359985129755 -1.766814677301904 1.808541370675065
1.104569334499711 -1.7539099668901 0.1425969445172791
1.882429299469828 -1.706455892426424 1.1138707587855
0.01969364930871176 -1.429585519281553 0.9178507452334254
1.732843841524693 -1.51577164128954 1.626342828350093
1.919038879715286 -1.447607147726917 1.341055644637211
1.171330472485991 -1.711487996637993 1.870445114959455
1.445971800540465 -1.385990361369787 1.884655737977893
1.303847181492251 -0.3200733547051797 0.7928446846688775
1.210574617275905 -0.6093735378487491 0.2615854372030045
0.9501273680930723 -1.174191745102362 0.004125595732046738
1.655992753324607 -1.648638317657979 1.640906388859105
0.7093053726121494 -2.128191048162888 1.379838276815814
1.015052441178936 -2.22386727890785 1.226618505614997
1.375343034497067 -1.813630443046579 1.735824931709745
1.158303618005899 -0.5623640397302595 0.2914121432947397
1.163053173625545 -0.9013701106015861 0.07703149415124266
0.9344395193145487 -2.247632789619505 0.9792481218127816
0.9782825354391012 -1.793313943238509 0.1607513414871199
0.08078608506503326 -1.322929609699974 0.6130542019624181
0.5290008036129477 -0.4664028259047408 0.594863941678015
1.005149758324627 -1.815606465737527 1.824659205917876
0.978896791202837 -0.3060959347301034 1.329544792320295
0.8569152386998248 -2.094928602377084 0.4846143114435754
0.3208363872925396 -1.333959175018566 1.729169146429244
0.4508279517090956 -2.079444220455261 1.102138859056371
1.11254003934069 -1.964686890660821 0.3096686390849945
0.4872000219929551 -2.107700184511777 0.9627632433684357
1.675550833175876 -0.6256637920064015 0.607781475216234
0.1171341006095908 -0.8863187647864328 1.297125836720905
0.2591418235647895 -1.418727702273509 0.3498768386723969
0.9554719133531215 -1.245133105247875 1.99899627768828
0.05074897469936501 -1.069148413731293 0.7426768671304783
1.334320097565456 -0.7432567784689569 1.794632858492628
1.118078623712289 -1.764824623302891 1.84912487059516
0.8552042542270387 -2.00157854898883 1.643555651599686
0.1958544664352619 -0.8697876621945397 0.5430661546477551
1.985053406386425 -1.109388940299446 1.099490283225992
1.294973217638248 -0.2945466276615206 0.9900173068180051
0.06752685773781719 -1.437507190128247 1.308763489761825
1.780798098637797 -0.6677468412958255 1.226573582622981
1.966238407130916 -1.12786011213219 0.7731405977775003
1.239169596358476 -2.184641275747266 0.7368582324159717
0.2669749243053494 -1.225404311592377 1.679756787766483
1.47957609539349 -1.447904935108728 1.854892043118162
1.774250327172171 -0.903924967573722 0.4701240684792924
0.6151359317020146 -1.453174313936538 1.900333186708977
1.477329629597168 -2.093934945224444 0.7551934785638985
1.399172138291028 -2.131178323009033 1.253350285318878
0.1698938911138076 -1.500527050398773 1.498156647058248
0.6601221978199499 -0.7705861429120551 0.1908983789304843
1.845969846054176 -1.762048029681119 1.14880132683131
0.2845043271441329 -0.8600456609250731 1.579656411645008
0.4982459042569757 -1.91907222495138 1.548256495815334
1.735319249216671 -1.860126614425108 0.7049557387414782
1.743718105204826 -1.578672406275633 1.582114962308588
1.408738092591316 -2.145114761794231 1.178052618298272
0.4571286099315364 -1.764894527858029 1.663456312824734
1.943629684835583 -1.378958687292136 0.6951513902459342
1.159585436197337 -1.114430730814017 0.02216900140868716
0.03236082343523128 -1.032502122594548 0.8720582269109126
0.6847712656749372 -0.5584044229282379 0.3501335500038525
0.887797958941703 -2.240776489716336 0.9240220465679161
1.101190284305555 -1.572164090884083 0.05873976770130496
0.2136738027960557 -1.808760595372471 1.263586245183214
0.3168282460923266 -1.645510523401005 0.3861207117504482
1.026601642385871 -2.238472113189582 1.149047757678194
0.201943895130956 -1.384560682640076 0.4126330991886875
1.504782335838059 -1.514185348183552 1.821827777110879
0.4102020842517164 -2.056183699018899 1.046970863470737
0.008117218507241675 -1.356074481566298 0.9298804439643951
1.823479559853017 -0.7363722479933656 1.240972917301701
1.450544595963399 -1.122660258493353 1.883625575275635
1.513174328493034 -1.119565185918395 1.848315311574193
0.3597504228335187 -0.4911116048880296 1.119033115990971
1.6353297190672 -0.8320295117415328 1.649351075316713
0.6716227191978427 -0.7856827601179092 1.822543532101042
1.677872215692993 -1.846087323282325 0.5696871345014359
1.701790362867588 -0.5704960190335253 0.7860733152762572
1.025228964823061 -1.742181973388665 0.1298733400215827
0.9898972915931373 -0.2520064018638074 0.9374962932137497
1.274147482735371 -1.1919346068703 1.959933105914445
1.070934782387047 -1.503927467809067 0.03538137186773282
0.1521140955767203 -1.546530819303174 1.43949853956948
1.596433080519046 -1.584725344543375 0.2704614306406548
1.445809858078253 -1.871105428774616 1.644578635068638
1.213392100762252 -1.766376782916844 1.829348436663821
1.661334976456719 -1.779470152410143 0.4686833273632661
0.5671347404754004 -2.020334069280746 1.468201974367973
1.003312792583283 -2.029132634345867 0.3731496482392553
1.676345058657522 -0.5910117653519528 0.6709227017477446
0.9716077912968644 -1.311599107344289 1.997697064473653
1.439724167260817 -0.6463136753806309 1.664985321788638
0.9527794803440293 -1.94499170142051 0.2825344903899248
1.590736593906321 -2.050950764884323 1.097509737212122
0.5390525979865819 -0.3651234644638609 0.9327615479458354
0.1417251459497454 -0.7368414127879231 0.994295679223672
1.889747632368472 -1.512619682600219 1.373336380501095
0.6356295979608894 -2.092747199545979 1.396246599701836
0.4009014122140511 -1.918781703143622 0.5597592526205715
1.328822480862726 -1.927652929965167 1.657770691494313
1.552194174438565 -0.4404182643849743 0.8008543069140722
0.2223325628447317 -1.194818129946203 1.626249405912471
1.037909866158378 -1.954834342893868 0.2916417635650563
1.744364328976217 -1.640492501968286 1.541698580074136
0.9930846051345293 -1.936755847594063 1.726855269712764
1.413167278617582 -0.4950200426899881 1.50921318123151
0.1425781615010567 -1.225971497131522 1.514052936880038
0.1403429967234147 -0.8147465064770618 1.267477537549602
1.861959737003966 -0.7749815278124139 1.177152089642274
1.177346890904003 -0.5124974687467522 0.3483573857690582
1.386060166174566 -1.875114428553982 1.678372684670377
1.806669617629548 -1.667468702622315 1.418334806493841
0.7639807112966863 -1.437375679722486 0.04648793924328454
0.2509437505272667 -1.897601475787451 0.8602607296292211
1.822032529698244 -0.9269107690997195 0.5310907667851155
1.052966548328763 -0.308999732381663 1.334235008789257
0.3641978128262475 -1.469436913875313 0.259997959723116
0.3996035521010931 -1.829780485656453 0.4492017667036841
0.6513382228375597 -1.196772777104295 1.935735981935471
0.1810805550449193 -0.7534184296090534 0.7122888833873049
0.3410178475931365 -1.032854183743953 0.2798679167737962
0.8957464935208146 -0.2567062873653634 1.049988066848941
0.007978162042958092 -1.126062654154701 0.9769303809924128
1.073047326971523 -1.811352529628869 1.824346665852167
1.087084678857864 -1.364668182212834 0.01042056069448016
0.9030823597167672 -0.3192756027331781 0.6473541899664181
0.576110134777913 -1.104669873751593 1.89397792845608
0.3776816136989739 -1.292772181791322 0.2184052414860391
0.4269197958728199 -2.069315490506216 0.9826446937765698
0.2993616477991974 -1.755161787666858 1.503902240227773
0.8487645411548643 -0.3897166159698386 0.5131321173567565
0.1699089416061488 -0.7440337058802718 1.234407644903755
1.439092341655803 -0.9813122452877261 1.857324212866347
1.355672651128504 -0.3491814585006535 0.7509559867609514
1.648503981198228 -1.129970152319414 1.75168838093709
0.9338639437656061 -2.099084224571481 0.4758988631479529
1.91312145555179 -1.118060721553131 0.6142523697883561
0.3201464320661638 -0.8874268313256508 1.637447898674923
0.4662277694350234 -1.551507381923249 1.790050950587035
1.713740844274524 -1.057906183976535 0.3264467555865888
1.7960679004107 -1.001640915814467 1.551900048231764
0.4283135529065022 -0.9538708019150735 1.765168023542014
0.0985249964068462 -0.9966750810797818 0.6490451548264533
0.7310060328572106 -0.7400201173628094 0.1829548574612654
0.8154011195576678 -0.7155210612462668 0.1752239592664439
0.3542683835367554 -0.4873758716486044 1.037882956009784
1.435965686144058 -0.3504199503390839 1.026261278662778
0.003020191184482268 -1.327645700823445 1.001551115021453
1.668167337041909 -0.8957666343857258 1.654271451613096
1.592235068695407 -1.715913673768944 1.657405561280457
1.525532187576907 -1.585400288935159 1.781871195276334
1.570197126845056 -2.044253782333867 0.7901520412632292
1.80715215805594 -1.81056347218171 1.185132351038988
1.917548044659071 -1.373171863809247 0.6219335009445148
1.840074717167301 -1.018964318185799 1.490812574517938
0.9269775433553447 -1.838661224504108 0.1949250447375076
1.601465634092326 -1.442909907714564 0.2247420696881107
0.585175787884452 -1.186690464067885 1.907696411639253
1.652912021995314 -1.121946005229914 0.2534693134522774
1.035875411087004 -2.246539587939048 1.074978693971088
1.510137651002663 -2.090495675413053 1.182555735712248
0.1789193269235243 -1.170348118367867 1.565227481685686
1.838534675019647 -0.706923397428924 1.04390219276473
1.887782093285572 -1.130123748896214 0.5556210634348312
1.860910053524602 -1.567124120816895 1.397826811233706
0.2257309239663268 -1.122274716417591 0.3801664337648734
1.306923287134443 -1.129576385202147 1.94408487373414
0.5022236747899094 -1.20802894435242 0.1337106946590152
0.4625784471677256 -0.4944512295949811 0.6254013746810982
1.180152353235674 -2.225027806825025 0.8701311987364518
1.007905125007408 -2.09713238783166 0.4686769095124451
0.2197599030477623 -0.7161286209501344 0.6741062416379269
0.5681248732919296 -0.5675289688867576 0.4103245243168783
1.557137627743951 -1.189124808442076 1.828185893869624
1.402123313715595 -0.9120513151806621 1.850933326997638
1.593151376312235 -2.054954407479053 1.01482722694733
0.9392915991796233 -0.2820250718232297 0.7564039645416845
0.7146443982821082 -0.3018293479945545 1.139801985836355
1.687895791644788 -1.901066783241601 0.6792018958958385
0.3298646029633009 -1.699856033802954 1.59037962235289
0.08978294567361844 -0.8554780408519581 0.8740740782706136
0.002409617874269632 -1.217012447462311 1.061034833233265
1.833337110311042 -0.9073729753392986 1.433769503942587
1.862272731218261 -0.9528313167835875 0.5899067048672668
1.061257979515599 -0.2610682149416967 0.8648653099790281
1.992625138770999 -1.193020677088889 0.8930014456151518
0.3573583522814242 -0.4847790077944291 0.9619402350838133
1.830427631444264 -1.199952133050178 1.554874003668979
1.790702941574158 -1.113050647746749 1.596685623342299
0.4388986952085464 -1.246799529823622 0.1722590485230429
1.095922264810968 -0.8931597741143231 0.07077237863729346
0.423289453490121 -0.5437776203107441 0.5893238551238688
0.04338270171108782 -1.406958549618214 1.245453372998151
1.76812976491246 -1.704714189182265 1.450790051367424
0.8564031077711218 -0.7930823386574302 1.877841775774794
1.937038124202933 -1.200433264801041 1.345691614812921
1.29346356337645 -0.6945263171159614 1.778028357191201
1.68766383948526 -1.682802970939622 0.4170763067002448
0.359766986378206 -0.9170322041461354 1.692267387064402
1.498294268938236 -1.869398611062988 1.606669747190801
0.8293686285603132 -0.5223437438692226 1.66438039404723
1.133849834288838 -0.4779544456780037 0.3786869678555809
1.980269633028152 -1.131560241471154 1.15825128802787
1.840633001060809 -1.37710889904438 0.4735216193315974
0.3108023662103172 -1.893015062416927 0.6660265712909811
1.647116397616852 -0.9488120512444824 1.700375747338407
0.7610429565448563 -0.2836219028170311 1.094936319015438
0.25731661531659 -1.831432365508418 1.332201436562937
1.889948718230222 -1.36893431990623 0.5597206495089426
1.318151085637618 -0.3032845793404155 1.050097894096969
1.417843786058814 -1.638419654420215 1.821301858339622
1.311405388614937 -0.5918734840050355 1.685489732152065
0.7782204648182657 -2.083961668041908 1.505293750219941
1.479187332424155 -0.4150206264229215 1.270534556286349
0.8791724925108428 -1.874018143144036 0.2279882964222451
0.1602079360743034 -0.9145692550980173 0.5731094932632963
0.1498601305048246 -1.287133935927855 1.525245916783017
1.742103380473149 -1.125704625444155 0.3413398201239531
1.221788642397645 -1.148154065774007 0.03023858409140423
0.9567915712143206 -1.190208488528806 1.997275291400455
0.03173795578127592 -1.335254470594155 1.234947417455668
0.2875215607120956 -1.072875687939414 0.3210291231378655
0.1545863895730215 -1.167497972501286 0.4722981497441738
0.5301002940271827 -1.581735292988387 1.81801342391954
1.122806917780927 -0.2744951536106581 1.182506864572418
1.804052689144336 -0.6759200655719405 0.8453019005713499
0.8015603054077197 -0.712382660616989 1.819505511881924
1.99808870110753 -1.201725382613264 1.038581161693855
0.1588490308206972 -0.7347545165264432 1.164277627231527
0.003060230261350938 -1.292430205694395 1.065656478417446
0.118821892744115 -1.517454863297669 1.389862846897933
1.839021446767724 -1.751724300223231 1.210513036245511
1.871027631948654 -0.9269019478661307 1.370025016842401
0.2639395772058696 -0.6739607426068144 0.6444809035536441
0.6452238891933217 -0.5771207584255946 1.649128213421001
0.9481899647291782 -0.4802784431559253 1.636273875917258
0.555942309034098 -1.429109453354507 1.877913760464592
1.53632151104877 -2.093524433026113 0.9712638263796639
0.1155526183196309 -0.7859159886170859 0.9512264475613802
1.086554545064741 -0.2949513653482565 1.283532037305269
1.015843340964802 -1.119508201985278 0.008677207364847228
1.709255680275468 -1.626166528389015 1.596200572724263
1.677018373355922 -0.5660693994805328 0.7281819435512382
1.881318553689684 -1.008703285267012 0.593732228227009
0.983110447235247 -2.249463074470113 1.028076783614853
0.1212071359875045 -1.362892760443759 1.463657553373289
0.1997389264490285 -1.095021295205909 0.4207212974574394
0.8192173852860671 -2.031836611931961 1.596698549068075
1.13559409748207 -1.060050392543388 0.02761458908769021
1.350128500265781 -1.067708457877775 1.918792591922865
1.098921261963457 -0.2580671019032518 1.079269853064978
1.461619822417983 -0.5779010574665399 1.578956087277951
0.8426878070632278 -0.8907224940012199 1.919876376279291
0.5433021029652114 -0.3604430716446237 1.01074718842068
0.8323671251972218 -1.470060404120743 0.03902516275212931
0.2675294502586189 -1.475357542067069 0.3575820114636825
1.468281288807066 -0.3817660418473621 1.163958618144326
0.9991450179992466 -1.373675131813942 0.007677607439707912
0.8562077630082686 -0.7512941030385017 0.1452390855234773
0.3023302508008775 -1.710455702895383 0.4511489576182329
0.9709621817967445 -0.9691576956983352 1.959314549680409
1.413295764330613 -0.3661931731593741 0.7807464845976736
0.6725482669698608 -0.6460637670158911 1.726661123925398
0.8806300783174975 -0.4624601395915194 0.3954077489205603
1.613162143646802 -1.096342746908363 0.2251312148687423
0.1290911848998081 -1.298081728176739 0.5109131128354413
0.9749198060759171 -1.144278569685016 1.994079455096465
0.9481542277990579 -1.099327688629267 1.987223313385117
0.4470618802774009 -0.4174123051490006 0.9674859085881875
0.9431668436021825 -1.479258881037256 0.02829512824139524
0.2261627044586467 -1.853755408900957 0.8085444013561293
1.675453116981735 -1.007365695648316 1.696341641086782
1.368349157854464 -0.3895231662702207 1.35199221088297
1.103235011969273 -2.151848914370029 0.5804632698400483
0.3925237015333658 -1.575051609428393 0.2752145158674268
0.6220165259463002 -1.592562557272708 1.860104288849369
1.040332019235713 -1.852469153768167 1.797122479285485
0.2929125341224376 -0.6214864064549197 0.6759660846024037
1.368421876813025 -0.4566915657496362 1.484692736517482
0.7734813695690137 -0.4894458524709393 0.3915209956424017
0.5041684094962441 -1.826994560127254 1.649021040831553
1.974673743862411 -1.194955376823897 0.783248569821025
1.600150630413345 -1.642556734830497 0.3030649737933361
1.301376559298765 -1.139099061721977 0.05296612975337989
0.3776377365171335 -2.032729333318137 1.000061284809774
1.479640290608452 -2.124950617569559 0.9336177098942268
1.180450499542691 -2.182214303222306 0.6862897673289206
0.3481805785731412 -0.5489337820271812 0.7107983404818649
1.701342349450662 -1.140023133484502 1.704289711481332
0.4738729222795509 -0.9169005457393364 1.782454504530831
1.066178623185534 -0.4254867390300782 0.4380406844637127
1.03202927215986 -2.123456587710668 0.5141525804228798
1.618121214494993 -1.999332329748361 0.762455848766744
1.874509126465246 -0.8887581216185133 1.323632651369432
0.01782510014509087 -1.311219105133088 1.177720812685806
0.3832485498926821 -0.6236253898182859 0.5232689474030183
0.728382041006197 -1.080697955698976 1.947396697348864
0.5691340167913124 -0.35376307868811 1.105422414082566
0.9923491059346665 -2.249201879842366 0.9607945521708613
1.821890430796625 -0.6807226206165353 0.9795211062986222
0.9514163666998769 -1.965988298679661 1.696419691514508
1.253995049987387 -0.6496711699611323 1.758348079977835
1.369911706025414 -1.691800816980939 1.817298824090885
0.9563147864954358 -0.7380353311508696 0.1421050297552381
1.378755956410093 -1.141022661469326 0.08094185974409296
0.919735275498185 -0.4207521808268897 1.553087360547399
1.416667176330339 -1.080785778713664 1.89317132258227
0.7326076223722964 -0.5520811610877951 1.664387395032479
1.15123072902371 -0.3312432307069312 0.6352874207308999
1.733502806139813 -1.292667515133374 0.3216541320702514
0.05720858618705182 -1.006760719092472 0.7720109602104278
1.406817161653661 -2.154058501887163 0.8689350460664718
1.369723293238305 -0.8505990079909613 1.838918073484663
0.1544882566312678 -0.726425182979525 1.104782168366298
0.9416298312199027 -0.2981471073965496 0.6990531704120686
1.487156981077429 0.9311681713922665 -2.120597642518081
1.996197240069041 1.077691516860394 -1.210565407485853
1.731909148155375 0.9325867036859427 -0.5719406763958281
1.195097925202974 1.066967775204007 -0.2715051780077116
1.830234073919396 0.9348526632816498 -1.803594804005338
1.99710920330506 0.9349079759156844 -1.21080478237137
1.874199330665587 1.069384267254691 -1.730584387721208
1.487490823036056 1.067982497932003 -2.120477499669322
1.87047749966932 1.06798249793191 -0.7625091769639283
1.487490823036059 1.06798249793191 -0.3795225003306725
1.12383825646973 1.074556037295264 -2.239497591476283
1.906042197198714 0.9320175020659204 -0.8323088259611302
1.960228609622447 0.9320175020660216 -1.520812476147608
1.675454240143184 0.9244083842180287 -1.983517196182929
1.978516247268795 1.067982497931967 -1.444638983263693
1.345316320069518 1.067982497931991 -2.186020843287463
1.95757860936259 1.079039387090785 -0.9728791199142115
1.674090544432008 1.068763370755327 -0.514558950867084
1.733108045331748 1.08092488883815 -1.925280501892656
1.345316320069512 1.067982497931965 -0.3139791567125331
1.830145879211532 0.9315981615195639 -0.696665555273658
1.78683056896677 1.074362441400676 -0.6373272626855671
1.936020843287467 1.067982497931967 -1.59531632006951
1.617661684050169 1.067982497931968 -2.033500111060132
1.978516247268794 0.9320175020680331 -1.055361016736303
1.906042197196055 0.9320175020680329 -1.66769117404498
1.99077100686201 0.9320175020680328 -1.367265476320054
1.617661684050168 0.932017502068033 -0.4664998889398673
1.194638983263694 0.932017502068033 -0.271483752731205
1.417691174044967 0.9320175020680187 -0.3439578028039393
1.039168988719991 0.9320175020683582 -0.2530826662668426
1.348689497496171 0.9322038465579394 -2.184783031464697
1.039168988720038 0.9320175020682164 -2.246917333733146
1.194638983263695 0.9320175020680331 -2.228516247268795
1.27081247615071 1.067982497931661 -0.2897713903782637
1.554284928996229 0.9320175020679978 -2.079546018893811
1.782609853844939 0.9312922554281189 -0.6312908094260697
1.801230423264135 0.8638794940043333 -0.6673328422817545
1.844366402569541 0.8650906368427808 -0.7314975005419115
1.751545682053214 0.8642508395218087 -0.6044372584971813
1.767454524281486 0.7969598048158345 -0.641897843862189
1.716180777276312 0.7971338429807669 -0.5822197842132898
1.697694823209557 0.8665067645112805 -0.5461523675216788
1.660970554004688 0.7992061595345455 -0.5269510664070729
1.675985949621631 0.7322018048986858 -0.5634673186114011
1.618939299894023 0.7350332517294641 -0.5106037832409235
1.631950707644984 0.6687332226912889 -0.5493569915010178
1.572510610377284 0.672820042304821 -0.4982122132622731
1.687436517101368 0.6664734724321011 -0.6048712606277409
1.557179447416441 0.740372327179976 -0.4612386071296541
1.509487979911641 0.6787212652390551 -0.4517506824832473
1.495293665905124 0.7447904492978117 -0.4196071593849989
1.443271924003941 0.6864051827526506 -0.4102570083737254
1.424849510817483 0.7557281702526677 -0.3783153286021166
1.375572648281799 0.6955538618236696 -0.3746385119208666
1.391431520799664 0.6274553365377096 -0.4085774912386576
1.64136936833846 0.604035475139777 -0.592841397827478
1.695200613767204 0.6025367267908721 -0.6510684070216454
1.321248732297729 0.6379194780113596 -0.3749588880552323
1.523148641616285 0.612170320213596 -0.4911168480906885
1.306640555833405 0.7040030056942176 -0.3453689432259565
1.250399934804028 0.6483172316892785 -0.3479916280192042
1.267233707332469 0.5810746478434992 -0.3821937457093916
1.193366476453736 0.5958117962554725 -0.3559970348272667
1.175864499810905 0.6633420806187538 -0.3249415569683446
1.738735689410454 0.6664668334404233 -0.6643164608801072
1.743888724284833 0.6040227129736502 -0.7116399401505206
1.785533147646883 0.6687143124129762 -0.7273266152290003
1.788460147898625 0.6072975050518941 -0.776591776964941
1.518375808878697 0.8630279959535034 -2.094112072462445
1.827702694917481 0.6730114409608025 -0.793944377204042
1.827942613107112 0.6129102970952326 -0.8442012921330748
1.864497061056014 0.6799020824271054 -0.8624665761627648
1.862248773352424 0.6207437938084654 -0.9143040320208712
1.896176113834212 0.6887733125092228 -0.9337622382027617
1.891146852698756 0.6307198551314428 -0.9863914615742528
1.92238165406883 0.6997608964013039 -1.006959746322755
1.914960293523609 0.6436950302858155 -1.060541746465968
1.943067163828415 0.7129504483899316 -1.081991430489134
1.931796703403539 0.6555973799450167 -1.135362576679515
1.957458099800794 0.7265698176341355 -1.157750758825765
1.943315954380249 0.6703593159858019 -1.211373200309485
1.966279049257882 0.7430153685856178 -1.233761213650722
1.949981624620917 0.6899760937330748 -1.287684087166851
1.924237471946438 0.7564694049800544 -0.955928674061395
1.96852324512016 0.7585939986676715 -1.310711334877851
1.950058061801274 0.7093681796109879 -1.363678600377449
1.965541414441119 0.7783785174013261 -1.386432017685769
1.944390660334869 0.7310879454014987 -1.439242140031979
1.451270791504147 0.8604970529961348 -2.131415679751874
1.480418478930621 0.7943539913703714 -2.10258888348177
1.40865372110031 0.7934490374708509 -2.139010031500856
1.545959577841096 0.7981073869629046 -2.063122077036792
1.541537554819818 0.8068466963009687 -0.4318136654832702
1.966895335108159 0.7886738480070367 -1.106980181688243
1.861734164434606 0.7399346760762773 -0.8143622409172495
1.957434930819941 0.7994753362577285 -1.45762517303271
1.932658655680626 0.7492561129808213 -1.509374892976403
1.916147642929268 0.679326929312978 -1.490504216369074
1.880574203596236 0.5761938617606126 -1.03792117231682
1.744315475688476 0.5439186326157185 -0.7621636965379446
1.924658056756483 0.6195335308794316 -1.265897922828221
1.902460172404465 0.7028943356219268 -1.561919639359512
1.882087962526187 0.6308338037393382 -1.542638250925668
1.864751725867945 0.6552889225786999 -1.615210522454457
1.840660514765542 0.5735700964263957 -1.583837439860091
1.438180701867355 0.7282011393709538 -2.106809810793378
1.370881197068786 0.7232551803775882 -2.136487136101243
1.395024949392788 0.6626453882471122 -2.104486486309926
1.324751294229673 0.6604507326248167 -2.132747354525137
1.822032646453886 0.6066802623794798 -1.661778960319909
1.79801912794131 0.5390851426793698 -1.638230557453808
1.775641796241103 0.5658417836112539 -1.708133656334063
1.74845040031751 0.4971169260951105 -1.682354729642835
1.349586407728566 0.5990735117635894 -2.096786451569613
1.277021504524254 0.5988139282141153 -2.123102984667977
1.76682517974176 0.4710365452423909 -1.613561284029134
1.716626461524922 0.4312840964564805 -1.65374340328846
1.733503391982233 0.4070509506083263 -1.582241175618059
1.680269858191678 0.3689373560486627 -1.622817461293087
1.695879899026342 0.3470631663344008 -1.549039558208993
1.642178427628884 0.3106917406234672 -1.585352039867642
1.653718087408013 0.2907214206714124 -1.513773689175456
1.302144908762155 0.5378780375956413 -2.083757606245756
1.595484851344583 0.2560481346110812 -1.553205233799597
1.22825458888041 0.5390649874983104 -2.107577260020986
1.606656337340894 0.2385782083171358 -1.478484011507563
1.253352870332406 0.4788082387713998 -2.064967159535745
1.546379573783661 0.2065403085623927 -1.518125118957032
1.177708983821262 0.4832115112393642 -2.087465924652289
1.210010455911187 0.5287815882465005 -0.3933502367755626
1.556221678690868 0.1913818836953989 -1.441713813112962
1.494394436121357 0.16173634740248 -1.479974325232425
1.502613239555612 0.1490918343637498 -1.402758715224256
1.202830805612796 0.4233329261069266 -2.041400499230361
1.439367332129805 0.1220844097655069 -1.440317008909765
1.446443015647714 0.1123348484487222 -1.362868119949001
1.507916570736573 0.1418570101961678 -1.324909053002555
1.450166739927033 0.1077261703128315 -1.284602299329109
1.429586822035068 0.1373476536305409 -1.516994553571936
1.510305301511832 0.1400140599059566 -1.246438807856467
1.450712567814554 0.1084067757814916 -1.206185576100385
1.509652511300083 0.143535237958118 -1.168009579181098
1.448615204261394 0.1146490062995156 -1.127942569013304
1.506059756397882 0.1524315742024237 -1.090214873828837
1.44360167872562 0.1262262187842151 -1.050658760183243
1.586047588374591 0.283113609222322 -1.627653448121529
1.661132726785675 0.2741893954501493 -1.440006536455772
1.499559463805713 0.1667296594047381 -1.013143753288192
1.435592475536531 0.1431536441387796 -0.9741857188191595
1.282290843183581 0.5164659524079434 -0.4214429985366451
1.225599774275096 0.4640108967170266 -0.4364765381324642
1.296656080800018 0.4538550591204131 -0.4665966088431798
1.238718755346935 0.4036564548898566 -0.4835877531960513
1.309389321040398 0.3946774375267744 -0.5166086696810431
1.250690206787985 0.3459001264519211 -0.5363419757019582
1.179179932055248 0.3572425332345124 -0.5051796251001925
1.378389876509158 0.1053689227804574 -1.012394577022357
1.373099507949471 0.1003804961164462 -1.476895362227109
1.137437584958502 0.5421114790911623 -0.3716782977401212
1.388898947287714 0.07873630666384002 -1.244448771385932
1.190403585284705 0.3019212439853572 -0.5597590818331768
1.36219885929197 0.1183663407876151 -1.552545991993574
1.374788789087564 0.5382798789418137 -2.053957644023795
1.490143551281442 0.1862371825119671 -0.9376710451924841
1.564852559981211 0.1834909678832588 -1.130607429232574
1.151692606791564 0.5454218303580207 -2.127694730945633
1.369011996869439 0.124952969885747 -0.9367543435981033
1.310506606098034 0.08988192341940582 -0.9756448756616345
1.30457645591771 0.08414892606116575 -1.511629495404649
1.292646497865482 0.1049095703990378 -1.586409200414961
1.234102153948209 0.07348772872558507 -1.544569504013457
1.22137797975485 0.09694152170056802 -1.61807224134832
1.101598757526465 0.488865773900499 -2.103474952988512
1.279110423914267 0.131053502259842 -1.658692250143689
1.20807685510139 0.1253131926690192 -1.687752226096282
1.1486376765391 0.09468906676260991 -1.647893145547776
1.133779433681424 0.1265188733643859 -1.718117276475944
1.074931255502535 0.09781019587161655 -1.674780960349687
1.057207946018226 0.1314645445888792 -1.742314344302675
1.000325292962147 0.1057939289925206 -1.697655444240161
0.9854209920313858 0.1436942668444362 -1.766263444271976
1.015675083594923 0.07439326796715973 -1.628161961822944
1.074883628201176 0.5536928580596548 -2.141741205328356
1.693406476404685 0.458952443047598 -1.725872881761376
1.464114633648351 0.6648813623857486 -2.069934817870924
1.264599864643713 0.1626909342507707 -1.72843540843533
1.277016005440585 0.4220280288521288 -2.017600503710873
1.300228993610935 0.1122399797065702 -0.9010806715529015
1.240780802656224 0.07994434014523799 -0.9409333601932379
1.320411968399514 0.3392983595425696 -0.5711704832557667
1.22966802657392 0.1050931441094566 -0.8673848972534628
1.169614443672804 0.07556949812746316 -0.908445922721958
1.118407112338107 0.3148997825739621 -0.5312389494202217
1.179973028236514 0.05329779130185053 -0.9828583949411391
1.108200798228359 0.05180808229772937 -0.9512950042820905
1.118183452369494 0.03243364147053063 -1.026733313214779
1.04600493918715 0.03396547865628186 -0.9957150237575956
1.035732317044239 0.05629681577538015 -0.9211421255269029
0.9733971531968053 0.04119773188577003 -0.9671740832226048
0.941516427528702 0.08564190685728656 -1.650660641011087
0.9631779102100415 0.06663719326999507 -0.8929593794586002
0.9010081286581738 0.05463027107493801 -0.9393930376820278
0.8909309666330483 0.0827984878780802 -0.8667959654157298
0.8299337466652329 0.07402025771234255 -0.9128961786784995
0.8194374281928967 0.1046809445433791 -0.842813376203652
0.8332280562984193 0.04810975981487187 -0.9929161820839441
0.9566158952562729 0.05695712527195618 -1.579830192493429
0.882505307121436 0.07113583247268296 -1.601292407303597
0.8978995087105578 0.04524773063212206 -1.529327037386898
0.8241338251078754 0.06242412581439971 -1.55003761209875
0.7581314172451588 0.09836140418095585 -0.8914648814890979
0.7491385863864291 0.1321494945195293 -0.8211596435768991
1.024141666674081 0.4984901381186425 -2.114815031302035
0.8092086817194208 0.09137510034808449 -1.621482791797016
0.7514526213482988 0.08521891276510751 -1.568433294431842
0.737140165629392 0.1170971056286697 -1.639085063431358
0.6885932089013849 0.1285615366197148 -0.8710266302244034
0.6787041592383682 0.1631511434459562 -0.8067698408349613
0.6801061883006915 0.1136485740679453 -1.584737358214915
0.6204884277907989 0.163538966072358 -0.8546471129737379
0.6110916535995319 0.2011285188512598 -0.7911376516783366
0.6667608177847857 0.1483249867512937 -1.654476599130718
0.6107369448587603 0.1477390456281295 -1.599464647075004
0.5549153078174178 0.2041440185753179 -0.8394968043787088
0.5485668942197763 0.2453351047815741 -0.7738812680322443
0.6001319853482943 0.1827307572479612 -1.664941629280568
0.5357901335597406 0.1865637484961935 -1.600472059712258
0.4924543558458905 0.2499050973408147 -0.8260246987088784
0.487667087026694 0.293210882998725 -0.7621843274628778
0.536805433034057 0.2283802694572966 -1.685951585122062
0.4762599080865257 0.2336476016518805 -1.622021931703697
0.4681070519052299 0.274191872254811 -1.686225232495872
0.4329663472988565 0.3002053934658661 -0.8155344140554566
0.4292716075881112 0.3452307385270327 -0.7544736976455376
0.4174401530557398 0.2800333124130053 -1.627189598866791
0.4104223104083907 0.3239151950170006 -1.691936063709355
0.3763686446297131 0.3541975290572003 -0.8095194656705098
0.3739021398637171 0.4011038194361182 -0.7506756220263608
0.3604083578508572 0.3325414846395721 -1.631341922119528
0.3547819023134811 0.3790642891602989 -1.695120713314697
0.3234530249305941 0.4122331126800791 -0.8063624489578366
0.3246491875987845 0.4620085575893674 -0.7455532851906504
0.2755383743180208 0.4743658010498141 -0.8040582528981839
0.278810030522293 0.5258023145853503 -0.7450033831082301
0.2313233501824745 0.539186288671692 -0.806393269350953
0.2373218338203569 0.5923995313711796 -0.7478208757759609
0.3068441516653213 0.3900012935776849 -1.633974671147114
0.3032241269073902 0.4383091497217643 -1.696101750041113
0.1919549332021959 0.6072036449035337 -0.8109394193887782
0.2003565184996845 0.6613880278246858 -0.7541046130547302
0.1577618483331633 0.6773502755010117 -0.8181064353830245
1.226726871731309 1.135649259611203 -0.2855342390722898
0.1684071562856789 0.7325263615034463 -0.763264758834391
0.2574045226542444 0.4510085004344541 -1.633614768264209
0.2559223425364576 0.5009525764441269 -1.694184768655806
0.1283963999801421 0.7493995899991592 -0.8286846799132102
0.1416709535821705 0.8053754333870619 -0.7752447723866692
0.1842904634464636 0.7892155516787336 -0.7113091161700299
0.1598837216998625 0.8625873660235225 -0.7252882629874072
0.2053137306314057 0.8470679338693485 -0.6625602018708334
0.1836850340723666 0.9209908903185864 -0.677822198097552
0.2313471924198164 0.9057264161548069 -0.6173189169983943
0.2121652304383841 0.9799168712652466 -0.6344408689573202
0.1665657518035768 0.9952545511883513 -0.6974017420866776
0.1979617491440641 1.054298501355342 -0.6552006078394879
0.2456018683489422 1.038828238574514 -0.5947322479698899
0.2338010773617104 1.113066107748779 -0.6174217311458876
0.282435481597476 1.09304956173115 -0.5597515367699869
0.2734677903148038 1.171147716386878 -0.5845231728561068
0.3771781026585238 0.4502262011337471 -0.6933657805415367
0.2123977341981503 0.5152697979521974 -1.63041990237958
0.2132800275370086 0.5667325437882311 -1.689716950225498
0.2591677473240326 0.5538545484228454 -1.752117326361149
0.2188835338024395 0.6209920764726516 -1.74619558657703
0.1754161027362845 0.6351239915020507 -1.682350430549094
0.1834983487377683 0.6905318671176668 -1.737395658799267
0.1425642819603178 0.7057047756328894 -1.672130679226808
0.1532306060161971 0.7620446882959119 -1.725771860290322
0.2260819205319881 1.186815629442553 -0.6448961024183313
0.2693811387569396 1.244196120229783 -0.6123760242426459
0.1950417576016453 0.7485533349773101 -1.787416786715784
0.1690117253123353 0.8199864526346449 -1.776358822569319
0.224018540033552 1.258796991174361 -0.6747810059225811
0.2685545236771035 1.316035268473603 -0.6457573134513017
0.1281000217172147 0.8349595204815456 -1.711033695070975
0.1465099109039391 0.8934339490364283 -1.760096407159301
0.22609717605835 1.329390486346125 -0.7090967493166616
0.1082617135413494 0.9088262992777441 -1.693272133976858
0.129365733605771 0.9676059811657067 -1.740863119131949
0.09383813279731423 0.9831890844416029 -1.672596809673039
0.117526492789968 1.0420142811608 -1.718481919876282
0.1559186657716152 1.026446723413147 -1.78556257526823
0.1462930543973682 1.100544118647017 -1.760955312366277
0.1113483337199549 1.11615725702662 -1.693627893236833
0.1874793010292671 1.084988781767388 -1.826703581329097
0.181311760982745 1.15903157794772 -1.801777604212317
0.3167523467038909 1.300211284044049 -0.5843831213092749
0.2246830564413794 1.142860483725818 -1.865202827708508
0.1202131509414316 0.6951612430842704 -0.885241953473719
0.09373468251189754 0.7680152718082682 -0.8966357966573337
0.27686180718731 0.4255559147594837 -0.8664831854692898
0.4640950317142346 0.3193758545669495 -1.749556440875466
0.4198926169563042 0.2451989703374091 -1.556187572834835
0.0755095536902114 0.9245760997550989 -1.623669171800103
0.08843397813384057 0.7145340463768735 -0.954100393543446
0.06463595218793061 0.7882585022453623 -0.9666986830435769
1.144745837165027 1.131018970563372 -0.2692438264400731
0.5399450917313413 0.296533464071157 -0.7082580741661305
0.2162420997135477 0.4669214910632827 -1.568670452110606
0.4450533329862488 0.2546668278586164 -0.8805238041822028
0.6300877676184464 0.1302434450638993 -0.9233679815447036
0.06224423040357263 0.7355636485511645 -1.024861081505128
0.04127981996029406 0.8100043306391582 -1.038440878218973
0.1831347784193287 1.272097893069507 -0.7413803519730131
0.1875441133904577 1.341381678310413 -0.7773754322641827
0.1475852471831198 1.282701310222509 -0.810148822465355
0.1548036578663768 1.351238005342949 -0.8471662789107024
0.1168330152927533 1.291862277336066 -0.8828045640380114
0.1268441076459952 1.359273103992531 -0.9205737952210642
0.09191785903621486 1.298595106216648 -0.9563543158735391
0.1046293034524417 1.365215261065486 -0.9951880519896898
0.07250168426680859 1.303481378124647 -1.031720529037525
0.08786960186157367 1.369137019138381 -1.07179787348781
0.05859904445345276 1.306378183064404 -1.108944515036803
0.0767975476042273 1.370975616337603 -1.149629068085594
0.6259629777320517 0.1155925275316518 -1.529141055051159
0.04181571182180333 0.7580109893398039 -1.097277412907776
0.06570690864795403 0.6843520824180436 -1.084280925726663
0.02381045078405164 0.8331185315818731 -1.111419555852302
0.2150362258185542 0.8063259503710991 -1.83849149163192
0.655663143580576 0.1880250057134432 -1.721305355331907
0.9976497158955047 0.5649013854041995 -2.150379737522699
0.9469419408239146 0.5123932494666691 -2.121449653847423
0.9198065397937141 0.5772738978764476 -2.152702415817954
0.8699645001356069 0.5278727533981185 -2.121886822810819
0.842625623663666 0.58905647762279 -2.147974792011981
0.793011811789671 0.5439488504636258 -2.115547941449783
0.7650062443029164 0.6078608303895954 -2.139384509894703
0.7169016069071934 0.563227480660777 -2.103864782139619
0.6932226608063219 0.6362715869104805 -2.129539257605155
0.05043553054317684 1.307152652971346 -1.186876580274467
0.07152175490225376 1.370725910513819 -1.227853947216044
0.04819983106935322 0.7076602543080941 -1.15718883950524
0.07500261365392769 0.6349399055472515 -1.144591448681402
0.2553892350677769 0.8321850741609886 -0.6039404366370723
0.6449694979936825 0.5893747517286045 -2.089845371557882
0.6209164261021363 0.6609835375759643 -2.11102466991737
0.6712534970894061 0.7102889195340493 -2.148884434551687
0.6000868569650112 0.7357708064209045 -2.127640251634129
0.6507464963692751 0.7849374428989707 -2.162014301825816
0.5807363541684623 0.8111592184566893 -2.138007406787893
0.6325823631093581 0.8609493655708702 -2.169602740952066
0.5637866306450641 0.8876773112089058 -2.142805415518271
0.6168732148223421 0.9378555064665137 -2.171602912540374
0.8204223752554809 0.4795495645738705 -2.084795316802789
0.7314414082128089 0.1739197106812841 -0.7545530922728577
0.5493423080034867 0.964852779276113 -2.142004662274678
0.5928965872858447 1.012633663752487 -2.163294696084828
0.839940908920816 0.03927532793386967 -1.476691843360831
0.9141112915501934 0.02505587846614155 -1.455200120973155
0.5332860899582862 1.04185651441385 -2.13341731835792
0.5880297511732828 1.092744056209094 -2.156465142252882
0.5231102574169451 1.119681070169624 -2.120777017876633
0.5742524770019012 1.174136838738269 -2.13792759167357
0.5218527908311646 1.195557165850062 -2.106231651627493
0.5789472949677796 1.245731685667052 -2.123115432370932
0.2206988902205107 1.216440693643149 -1.838084353160096
0.5179005213279568 1.272993722270087 -2.082498961119632
0.5758296016517001 1.320334651376294 -2.097033165993323
0.5166049490831074 1.344589049796722 -2.054728284273174
0.5775568850537813 1.392544411932072 -2.066976559820072
0.5186160537434595 1.415705907356937 -2.021659312698956
0.5817543682487768 1.461405844908652 -2.032416281659037
0.5238063277508207 1.483702043038416 -1.984351360092908
0.5873141026258701 1.528980045549266 -1.991532508740652
0.5339231783275621 1.550629287436073 -1.942516991934033
0.5962513349362981 1.593362613593789 -1.946353232381689
0.1064734012289843 1.427555303545238 -1.112862551799154
0.2333174667510022 1.396618266495665 -0.7451318549434193
0.5440591415986955 1.613309338239981 -1.894957044513755
0.6078665218436576 1.653545151949555 -1.897387109596911
0.5540429508599956 1.670030629849356 -1.843448620679175
0.6217569234066702 1.709527406769906 -1.844561211358078
0.6772067778389939 1.689860663112911 -1.897994445359164
0.6923514679579725 1.743983790836221 -1.843161444891145
0.7484302393315116 1.722648531843848 -1.893810340815624
0.7644382017236533 1.77450760090482 -1.837067811529021
0.8207322551961101 1.751571963435703 -1.884824904560565
0.8379164756004244 1.800365501482165 -1.827186274226453
0.7816995632029329 1.821580787816654 -1.776640226705837
0.8557650405594076 1.844934869619076 -1.765054698626239
0.8023991720422409 1.864280553302072 -1.712572197580305
0.8747790859495315 1.884446963608637 -1.699525629133455
0.8228413707612574 1.901182162861929 -1.645582519110419
0.8950256187536132 1.918688631258005 -1.630777596608874
0.8410298329652972 1.932061131370145 -1.575561873354305
0.9154358256362087 1.946587950445205 -1.561159368308456
0.8612350763683499 1.956948257738278 -1.504939851692857
0.9369099301430963 1.969037133385254 -1.488718824573891
0.9913658596056887 1.955746481699542 -1.544064813159612
1.013038993613262 1.975164958287321 -1.471095655258176
0.9585452149977819 1.985287315967918 -1.415802309372206
1.034752705940298 1.988517543186586 -1.397055486950276
0.9804253294124362 1.99561610537445 -1.341462576994097
1.056457932362213 1.995801657189858 -1.322052490666988
1.001924577983283 1.99987479095909 -1.265706635671045
1.078011953754447 1.996946427836601 -1.246542385901309
1.024018649620096 1.997890161252856 -1.189681424542884
1.099401159770006 1.991923520858407 -1.171214606656818
1.044451125176753 1.989847236495832 -1.114994274669237
1.120165679521215 1.980779678060867 -1.096274814789423
1.174673002602331 1.979815547058282 -1.15278459018877
1.089164729788259 1.975276733283405 -1.452200258352548
1.065065447771815 1.975656433510029 -1.040569793829202
1.140502591281295 1.963599437484142 -1.022546387314938
1.085076501978398 1.955451849530497 -0.9673805526155859
1.160261449530425 1.940477202403337 -0.9503019860693114
1.104360770226415 1.929358196684648 -0.8958783092031664
0.9124548206319169 1.821179712522142 -1.813914640093217
1.179121296723125 1.911510487883873 -0.8797781860317661
0.9706584003124993 1.992882485572004 -1.134572791889707
1.122799221005853 1.897536537183242 -0.8265044088287704
0.7882192009122867 1.939952690896694 -1.517652446306463
1.197005334510568 1.876807504663143 -0.8113686081220686
1.2529223389685 1.888038561402229 -0.866049737708956
1.269936801604344 1.850593709739164 -0.7987523251120464
1.324783174605029 1.859034552300381 -0.8543037434501516
1.3411434552136 1.819056956194482 -0.788733433387637
1.394961828945778 1.824907307903241 -0.8456077559551451
1.047776495875515 1.912652858029976 -0.8440663020004702
1.065939446959657 1.878193095194752 -0.7762607501093919
0.9907533381313443 1.890388797359354 -0.7948931018087617
1.008840932879834 1.853042785151006 -0.7282339177297656
0.933643270552599 1.862703438852252 -0.7486622285828206
0.9518196531558886 1.822708807736123 -0.683582422720315
1.410185774619547 1.782391903598885 -0.7813737742265419
1.462761231924698 1.785761047409619 -0.8395957863261214
0.8767988031459432 1.829767669470045 -0.7056590408613564
0.8952933043813028 1.787523220813324 -0.6426749761680968
0.9704966959051244 1.777677957547438 -0.6220298180706899
0.9141240566600484 1.739775483779054 -0.5826488510874197
0.6411389210961835 1.430032336836274 -2.078426771249651
1.47663759838507 1.740824865779286 -0.7767187748824007
1.527762893965174 1.741837399820211 -0.8363049432474542
1.422693140746268 1.735104313188175 -0.7199507970969139
1.51235744302142 1.784415408619348 -0.9004541270432528
1.575753458287176 1.738135665478182 -0.8983415085350014
1.558668276934171 1.778363293139171 -0.9635731502792569
1.618703275042927 1.730925488791963 -0.9619823142836785
1.601407881569536 1.767642057452049 -1.028563255946922
1.66116668989565 1.71670974460959 -1.028221393831403
1.640312448128864 1.752317878031315 -1.095023294764407
1.698258254413099 1.699353181084549 -1.097223895026434
1.675204219671421 1.732483121492826 -1.163007250497328
0.9887273286211131 1.73010248045542 -0.5667553184159966
0.9333839012112355 1.688342916792791 -0.5276799017863634
1.730815070303547 1.677106498117781 -1.163767040965208
1.705681072292652 1.708266867633031 -1.230705741237682
0.8205708065097073 1.79178478416198 -0.6661489744010116
0.8025970343926746 1.831827153080031 -0.7312556924956156
1.487756656400301 1.691258865033119 -0.7168446514848382
1.432517203513799 1.683835706541315 -0.6623797185905304
1.632032510299528 1.690020818605549 -0.8972874033786071
1.758787674494547 1.65108584825219 -1.231875893376975
1.731720947661315 1.67983470424224 -1.299083904301635
1.676289722033808 1.735053775982719 -1.298250992580267
1.699997533690011 1.704578441682587 -1.366501812621259
1.011632651626794 1.679262464990509 -0.5161967667888436
0.9565231475122977 1.635815494747475 -0.4793843889870998
0.8777154856333677 1.645529766863303 -0.4961181673236008
0.8974276740196263 1.587983362848069 -0.4476568795354122
1.753418703848116 1.647035512682483 -1.367069646021248
1.719430936489298 1.669715510933992 -1.434120237987447
1.663814885449351 1.725190175876809 -1.43289069595698
1.681116640069599 1.688120743266941 -1.500139891472855
0.7469507582741264 1.791337877715249 -0.6934477162430414
0.7296723548642859 1.828874546471412 -0.7602143831356513
1.623428087109194 1.741360493960965 -1.498439204227765
1.638712308318871 1.702137603992082 -1.564721102346566
0.4853295691124377 1.619613355071323 -1.842615927719859
0.5021446717550015 1.682482319876224 -1.785124242764642
0.439343516289835 1.637458002626133 -1.778499387096763
0.4550913018950875 1.691850083600699 -1.723727740956043
0.3931954191703665 1.6443882340872 -1.715351484852206
0.4108527726357479 1.696610673598754 -1.659437558019907
1.75120264704598 1.643271585957644 -1.102026185523756
1.694206691554353 1.647024189481982 -1.565335959932172
1.649425989783881 1.659441041163761 -1.62866000187778
1.59226084208076 1.71197144661785 -1.627258206191298
1.60068530882466 1.668920881721991 -1.687860724156091
1.542048961497174 1.717561572075225 -1.687365194798085
1.552752704877539 1.663574189581765 -1.75411679417717
1.49604977395171 1.637368989674394 -0.6603429871833121
1.43926657365979 1.6274077529454 -0.6070346908197986
1.183656249950936 1.201673230800661 -0.287919811121556
1.651552652721338 1.619349021629297 -1.688047862839919
0.822027759911839 1.595244318487931 -0.4664120450990584
0.8420033883194694 1.535958482032034 -0.4206716113412072
1.488386597743331 1.718873475499389 -1.744671059764086
1.492751628419063 1.669581943507197 -1.805748012699538
0.674834022192635 1.785884128920834 -0.7240216517888569
0.6584171718312932 1.821228282680495 -0.7929384295022033
0.3513043667475468 1.648663797002437 -1.648031724687341
0.3702304692270724 1.697677176470389 -1.591521442287819
1.501465762044981 1.579487873179671 -0.6075625366353948
1.256513900582403 1.20078079884038 -0.3045436606458127
0.6046657364378105 1.775457200863418 -0.7576820644311097
0.5893923929260968 1.808152573063795 -0.8277550335842816
1.432795435500174 1.715663763616985 -1.798191105779533
1.439090395904651 1.664159463217635 -1.855055230241636
1.497328486405487 1.614982883569904 -1.861931719659697
1.438797570760129 1.60887196374675 -1.910856734593955
0.6404359344796369 1.218311068600624 -2.157223214050942
1.373147874407065 1.666188661015974 -1.895719236014565
1.375421303135242 1.596897054307699 -1.959064702062534
0.7674578214654714 1.544159793368356 -0.4438894278799445
0.7883489528837189 1.481710115107546 -0.3996123241381869
1.311664810301257 1.641932141018664 -1.950562754039262
1.310946747485588 1.582053061081823 -2.001349688436359
1.438634745238858 1.549307429453168 -1.961238995146353
1.213497794676083 1.266251507406248 -0.3100378590217849
1.289225909209354 1.267169248477122 -0.3307780648231939
0.3120334532675222 1.645833271389497 -1.58106104594671
0.3336368478782762 1.69390781182597 -1.522859117826938
1.479824844272223 1.764003974790357 -1.681353735724722
1.245441818909198 1.331809926338474 -0.3391429934870125
0.5368790124369545 1.760121453412096 -0.7942211863838867
0.522993859722684 1.790436633760438 -0.8657148582794216
0.5769412972748207 1.83572824471041 -0.8998862541376798
0.5118927016936994 1.815461622110499 -0.9389154323901003
0.5672232361765998 1.858459641415076 -0.9747704289941852
0.5041923974041991 1.836012573227753 -1.014930226074648
0.5603836032400975 1.875794306950976 -1.050696824882041
0.4668017139472213 1.772762742672273 -0.9057074916760378
0.5532622006041537 1.72521691599301 -0.7260861107504928
0.4982223180706609 1.850336108794757 -1.091419862538178
0.04804544408375966 1.305854424420654 -1.265349088983514
0.07203374297703857 1.368386435885656 -1.306303283050445
1.581254760344221 1.798886644642375 -1.095329276883992
1.24665410036491 1.625812112564906 -1.989946588978033
1.244932935562853 1.564145556519977 -2.038509764134426
0.7135868232453964 1.489611722665129 -0.426441955166352
0.7352374558033101 1.426105827378226 -0.3849366386993301
0.3938114183591961 1.743379829158413 -1.532704497821876
0.06044213606692961 0.6591307581958352 -1.217763680213464
0.09007396798922784 0.5876321129692517 -1.205420385657486
0.5564309167656236 1.887921604570695 -1.128173514639808
0.5514872491192679 0.6863328236322295 -2.086928440648822
0.6632146185859191 0.997584863846453 -2.191578341925478
0.8059066843693472 1.697029871721075 -1.940273237751545
0.2946142178717092 1.597127637731185 -1.631928635518252
1.102376924860685 1.196930614714879 -0.274942412857533
0.08681060842053134 1.233334612837944 -0.9158741351548987
0.4845285001064118 0.9918699721766464 -2.106868155228706
0.029901332353926 1.241363100227321 -1.224457312593068
0.03047047200849518 1.23920067574894 -1.302872781975418
0.3592054860138165 1.737616100384604 -1.462849428701655
0.4213115962316367 1.784705138495409 -1.472165652077283
0.3010155312786371 1.686053437045273 -1.451869745144441
0.8565323644550397 0.02207159189721886 -1.401898209919336
1.239669119989817 1.689299262094523 -1.933685044592357
0.8634309772203843 1.4717462334263 -0.3789062086863895
0.6630298558163814 1.430628168674325 -0.4127363006357742
0.6854425916825316 1.366012474393288 -0.3741641104287285
0.9310568073415946 0.01086681618133567 -1.379855230371435
0.487774247028109 1.707982593631053 -0.7638051572591228
0.5050715188136053 1.670380986805121 -0.6971572275585753
1.320342094504447 1.331803790265751 -0.3627079470355969
1.275685103169033 1.395419629307887 -0.3738487341510637
1.044513080601676 1.765015865230453 -0.6075287464788405
1.181684447042341 1.605072411892024 -2.025163297679971
1.177677452988754 1.542388298047634 -2.07112462929839
1.241375273471619 1.500970636834827 -2.081123575881354
1.174039099319184 1.475569598569501 -2.112289944754438
1.108048016068901 1.515812662860517 -2.099860531532272
1.104083883072669 1.447428108634404 -2.138242440377825
1.038917317811406 1.489265454958982 -2.12126618031354
1.034362470340817 1.41871566440007 -2.157467031367027
1.129154050634165 0.2617137240066714 -0.5879935001190019
1.056775414422475 0.2768895621304159 -0.5616048758443922
1.171074435249346 1.401897803663896 -2.14956194506785
0.3286367601379682 1.727565247107984 -1.391138978891921
0.2725778470043706 1.673819106888159 -1.379710533587857
0.01531433722365017 1.173929857238167 -1.261939442357641
0.6242270078419376 1.896181414182196 -1.014089993347088
1.045758044668632 0.3322494931013968 -0.5070225697339373
0.9839680645695892 0.2963863620960534 -0.5395981238749934
0.9729048062490941 0.3538632850513193 -0.4872594175796543
0.9111814020388245 0.3200837805492684 -0.5221090801610204
0.9002970812884846 0.3796077480058083 -0.472071480362122
0.2335786451422971 1.068462510818985 -1.888679255519109
1.245200547092116 0.0555711637294124 -1.468931187651076
1.556709085126388 1.58757063274821 -0.6627728326536583
1.560491555471715 1.52788791343953 -0.6118906307776408
1.614010241949537 1.534248725697411 -0.6689924941347457
1.615979619178721 1.472926372772974 -0.619992258228333
1.667599554922376 1.477732396232918 -0.6789635809714063
0.7853749133823515 1.865215129223514 -0.79685669776868
0.3013994559759453 1.712175691590404 -1.319014956328498
0.01901977653110021 1.172786592009071 -1.338445433939793
1.044407348323734 0.1723321125228159 -1.809458537743334
0.9700314706296854 0.1862448226091833 -1.830434663435103
0.02626150327475041 0.8856627885828711 -1.053123535991206
1.667587454924626 1.414942499475287 -0.6318174119594909
1.71714624577976 1.418370489532546 -0.6926245469593285
1.614333661844882 1.408979355815343 -0.5752185254164683
0.8388647001016987 0.3478355459565305 -0.5092456952478319
0.8291170771790228 0.4063452477045831 -0.4636329980440258
0.4622540760323538 1.444273950426707 -1.966554239557921
0.07831927390174276 0.6131176987832569 -1.278752811066513
0.05151163387969093 0.6854881490576921 -1.28810662608091
0.1104590037870145 0.5433045560810117 -1.262086668691061
0.1253089510642426 0.5187352673279663 -1.19255588804951
0.1483893289304916 0.4758261006033953 -1.249005961821748
0.1659530597978094 0.4527501181896744 -1.180119613639104
0.1920148269133622 0.4108640667770544 -1.241122373195221
0.2118260510273174 0.3899083560974536 -1.168944388219595
0.2403711836199458 0.3499465376147417 -1.230136531874431
0.007088823396433908 1.106425402266986 -1.302924749673781
0.9705280178918081 0.4455661705425756 -2.081705795954188
0.6134704143928146 1.370183684127686 -0.4052758323239527
0.6369654270220286 1.304431514627444 -0.3693596921987147
0.709983611529218 1.299225332122077 -0.3409594645810359
0.6625145698075843 1.236712499730413 -0.3389177990547618
0.736501436721628 1.230678983291188 -0.313327317672829
0.6899601415083381 1.167444632820554 -0.3141380544727443
0.6169728674820942 1.172854246838848 -0.3425796866364048
0.645488335366345 1.103061056291801 -0.3206454399344171
0.7648323868583298 1.160796527975377 -0.2914382282187999
0.5736396092067979 1.108044736405068 -0.3519225244457874
0.6033605190506437 1.037925659205371 -0.3328093074359818
0.5843261605115798 1.438589330657754 -0.4532223282507606
0.5327822680877761 1.042684002992915 -0.3668886441250468
0.563836725116827 0.9724404876494143 -0.3505545759068072
0.6357005841111298 0.9676661415112773 -0.3192796031147381
0.5974124744457341 0.9022734281010671 -0.3398501214563746
0.6704601864042916 0.8976998578761778 -0.3114169231353298
0.6333022708702626 0.8326159282064752 -0.3348413536654348
0.7074247734325406 0.8284586728759943 -0.3092697996303432
0.6712845858066506 0.7638979465842357 -0.3355591889878523
0.598235601212489 0.7686780684932986 -0.3639551185910961
0.7463661825025814 0.7603699754391317 -0.3128514856488094
0.6373455669736536 0.7006816551232988 -0.3674523861985624
0.5654766252919829 0.7062809330646387 -0.3985785141594224
0.4946530347142558 0.9771754835715202 -0.3873856677945265
0.7396715208639167 0.8901290164323716 -0.2907516224039908
0.6058172044065955 0.6391999989653563 -0.4047525315556578
0.972667883459017 1.571191643299295 -0.4296384565141772
0.5352275468060324 0.6458096661790875 -0.4384978286043273
0.5740112586191026 0.5838890155440871 -0.4466412751255826
0.7674643312135186 0.3794703614627736 -0.5010873679534554
0.3186878283963012 1.37074084746162 -0.6188384130445742
1.225880631038341 0.3679819504680947 -1.991303666244547
1.299522557473171 0.3682676908302316 -1.964982885890119
0.3147550563450491 0.3457214567543 -1.569935860827773
1.374277912753028 1.671351768860878 -0.6103103514417266
0.2625036781434364 0.3310390716958159 -1.157315310593151
0.2933567798426725 0.2931199003302443 -1.218760856340819
0.137290811815368 0.6511407731818171 -1.616101210713148
0.9905154629802875 0.2448445775935183 -0.594522821474607
0.8738057814989144 0.01091910719719447 -1.326118373007476
0.7996976189895615 0.02516037977556407 -1.347809360504129
0.8793394922920533 1.722705389671982 -1.930542402513414
1.173660323225268 1.322776584806978 -0.3195929017695324
0.2728850893375087 1.126011439116216 -1.924851853301254
0.9681335953957553 1.457621390781479 -2.138575936516864
0.9642138305988488 1.384949573160949 -2.172243555793585
0.8861057742302243 0.6480350813421509 -2.17905801830159
0.6949423399419437 0.8334839422717771 -2.187663173297616
0.1179189705194978 0.6425573806311877 -0.9431322250718073
0.3232883572371187 1.150745635293513 -0.5293495257830482
0.2989797772141158 1.019558484185149 -0.537126860555394
0.270652296236228 0.6113307588669296 -1.813017005082046
0.1642803826389022 1.415283307245064 -0.8906777269895141
0.3531219620462818 0.4291008965161747 -1.7555917499866
0.5710778950996849 1.304534403601279 -0.3995385811507401
0.8079113855121486 1.96129624228685 -1.447513287525979
0.7351340046385664 1.94116571605547 -1.459888302253821
0.7559008144116333 1.959761453484103 -1.388829175612257
0.6853972457178203 1.937387577011418 -1.399431045846333
0.2962824309832132 0.5812775082608659 -0.6760199846955692
0.6708270329195047 0.5201429629325399 -2.063254192562363
0.693005023669871 1.745912682823886 -0.658926100973375
0.7308483936055911 1.837265827942706 -1.725965698485431
1.377243669360291 1.864630217017631 -0.9181840845474305
0.4617595007343152 1.293140521622434 -2.040168209644727
1.552464315518061 0.2121423368508788 -0.9778539313229636
1.541557140509949 0.2343353787051381 -0.9029069991197132
1.60230727446192 0.2628518020039697 -0.9436693268354287
1.589515894539875 0.2871513481901822 -0.8701081605275315
1.64842619615773 0.3179061497635972 -0.9119298185197398
1.527245032807713 0.2607479753539588 -0.8310499797871802
1.573297733211847 0.3147899993929071 -0.8007595697600385
0.5987183606141442 0.5450579253926198 -2.044984751202017
0.6259630949692767 0.4778688373367089 -2.016469466222182
0.9501292844188598 1.899473455499752 -1.684120276627066
1.042129052124642 1.5542252366365 -2.08129990379062
1.604142885109311 1.776112825453109 -1.430721488868893
0.2465416281319232 1.6299628439429 -1.438274525927647
1.132269579745816 1.989819949936275 -1.302547359419999
0.03644952814110136 1.235083581180882 -1.377695724437686
0.4441480600167893 1.807299396349649 -1.051767042421314
1.025447179600649 0.08446245991239865 -0.8485732274240843
0.3740352472786623 1.591522979031237 -1.758201430171665
0.6720244065371394 0.6343545675414929 -0.3789457951338988
0.5126315213608499 0.8388488404899667 -2.108197104293374
0.2840862686536568 1.051313254340157 -1.946300566708644
0.01800494083841608 1.17854255523457 -1.188288900896615
1.770578450234225 1.610139896907915 -1.434223120796004
1.802192117406548 1.585546937718588 -1.366715853675422
1.816945411741357 1.546777811601392 -1.43339634395248
1.846081049603914 1.520409154913101 -1.365417368639953
1.858245622471533 1.480020355394167 -1.431645010709649
1.88475639886929 1.452112734989011 -1.363137922557387
1.894233166169572 1.410371341877918 -1.428724386382101
1.865110322859661 1.43674531653216 -1.496652909508233
1.91789008518635 1.381356588040044 -1.359749461388438
1.905705900200032 1.421637760534967 -1.293799785774675
0.1797944309078231 1.232032166622112 -1.772899510501613
0.2216507386136948 1.288748969153541 -1.807491219762393
0.1828979593401019 1.303759694489985 -1.739973778025703
1.754678254421554 0.3935271324654636 -1.500302603357762
0.0725852414028938 0.8419543037242821 -0.9109964256456951
1.143841591755586 0.3727226827682407 -2.01539712814182
1.123313950569924 0.6103748140345775 -2.162680603528008
1.646673001927506 0.5416878969058635 -0.6402754353517504
1.001676994758948 1.963061252840473 -0.9807227990231678
1.288298208866885 0.1401407088251478 -0.8286614874659253
0.4402449873184305 1.650625256105491 -0.7368128003393695
0.459822225583663 1.612196699733388 -0.6725719327377987
0.9487055588448404 0.002770814956293499 -1.303877943572901
0.09836836471121624 1.432099971177133 -1.268708531615143
1.659286803176162 0.2957975052800779 -0.986485754487552
0.5549363936614907 0.5040688585243596 -1.995634420629593
0.4578064576242491 1.787968662413187 -1.541773113327475
1.797743745631442 0.637596439601278 -1.731942502500296
1.748388709248178 0.5954242851436073 -1.775578567693057
1.768191258409824 0.6681193051564791 -1.797482780453333
1.716078669395434 0.6272433518711589 -1.840155759535241
1.503608875595579 1.518095684017383 -0.558657130922784
0.4962752219099498 0.7138907861248078 -0.4348908872587368
0.8893026881945265 0.440153828120002 -0.4288310959428909
0.6979618490877919 1.550527341958924 -0.4717374471624786
1.715020696363632 1.479777061056362 -0.7415126594930934
1.762528627451819 1.419186219867575 -0.7572191101619516
1.757950338072487 1.479047746617186 -0.8072534116711916
1.802939258172571 1.416912986506017 -0.8240045664940587
1.378223183017522 0.3895963141698969 -0.5540441363469097
0.3177061175775583 0.2763543427653539 -1.146019132652452
0.3507033388558077 0.2406434919046966 -1.207673419222535
0.3771082695692302 0.2261672633328161 -1.135157552171951
0.4120693839809437 0.1928232158874633 -1.19705446253747
0.06399321189399032 0.9979492937500452 -1.601975975349665
0.0484555929758913 0.9405861353455243 -1.551717142615326
1.898276978760594 1.365769807119377 -1.49353832886959
1.866345007128007 1.391069506974534 -1.560662146614402
0.3567526603844685 1.761527474190943 -1.329427741563661
0.8121434792858337 1.223426552802499 -0.2935531885525676
0.8376679296882816 1.156538998260906 -0.2757598648321947
0.1017137626618609 1.428535339205926 -1.347156054163138
1.936077968828165 1.349469103175195 -1.290365606652958
1.921040707284939 1.388619612325095 -1.224332658097241
1.379881881591634 1.613418192724842 -0.5576071368994422
1.314565972435494 1.656175056535466 -0.564082698741029
1.824037883331909 0.5569203058649106 -0.8969533296021286
1.762248604180139 1.35665747313382 -0.709840290022267
0.3283496790882854 0.2597302430907809 -1.279774711161593
0.2483426281110752 1.657105274283367 -1.30677899078018
0.2793781848461285 1.693317802804505 -1.246175887204428
1.028599294196209 1.352193652755961 -2.185490091518821
0.9589208709282864 1.315875405748417 -2.197910983794356
0.8932502561626994 1.352469455385354 -2.179714889205838
0.8903946163804902 1.275571915808015 -2.205011402601833
0.8174750529181422 0.01703962373754142 -1.271761029174442
0.7468084437037831 0.03358045316783087 -1.293900971754671
1.66361551531211 1.349510419532809 -0.5885947426312353
1.612925338763625 1.346295689078074 -0.5397874791110496
1.796259654632321 1.47556089940635 -0.8760850452835028
1.838643925173591 1.412036489811542 -0.8937665121957019
1.842925552599246 1.35212086205722 -0.8431985603770117
1.876034359763224 1.34606472610007 -0.91413841264068
0.582917757479275 0.4373891201708312 -1.963800673067581
0.6553556072887083 0.4133055170902838 -1.982809542989149
0.1031548293747651 0.5673726323257924 -1.342207920839152
0.4675212247145487 0.6544079576603331 -0.4773212218897145
0.613676044711425 0.375041885236576 -1.928366535408062
0.6870521179397311 0.3523861539767162 -1.944737309745865
0.2228280084902201 0.37281282301285 -1.301380352622498
0.4403434762963632 0.1807876114891432 -1.124797611898584
0.4770761353304606 0.1499542413535409 -1.18696953144519
0.4505168829721963 0.1645481209207749 -1.259405415695271
1.335261942575782 0.170653439184296 -1.696971712665888
1.18954742100042 0.03687645060605449 -1.059042403149553
0.7083682719922721 1.953199531883257 -1.329759561412829
0.6322298410986082 1.926026781746633 -1.334967698036487
1.866211682119101 1.411421768572231 -0.9664343989386321
1.899141198804119 1.34834114510724 -0.9850404724519835
1.127280352875053 0.0190238494706706 -1.103420656760032
0.2275327263683974 1.359338989813996 -1.773612262621509
0.1915493263191379 1.373103237245128 -1.705193895589743
0.1497394865399388 1.316256215974873 -1.670760103987875
0.1606353976783865 1.384758774630179 -1.63396321401218
1.003678802491772 0.005727162167040944 -1.356808194254097
1.387405532997442 0.3360939913596104 -0.6103549697729573
1.948594825444394 1.315160301709817 -1.22098549731087
0.983707296520559 0.02200899219624519 -1.041990056804183
1.21708804008797 0.1354251675339754 -0.7968078311388099
0.18826762988115 0.4334778001640008 -1.108073411954579
0.2287230256228215 1.63629340404 -1.233797136957484
0.2630297175945456 1.671490554733955 -1.172700337941813
1.247413156330879 0.3166725449824976 -1.936913618509413
1.320373978473899 0.3184875211020852 -1.907952319718705
1.371526437579558 0.3721099393560973 -1.933902169848904
1.395321793709583 0.326917115362739 -1.875044086306416
1.441284622573632 0.3799858183437073 -1.898729756081163
1.733599746382792 0.7010818041291802 -1.86031084234547
1.679453037475167 0.6611350179207667 -1.900779604617577
1.664349303440001 0.5917952778640384 -1.876106147426048
0.7628787220134938 0.02907142594562429 -1.217270752975626
0.9114399185179708 0.1598853297383578 -1.785130313829322
0.8959078389306896 0.2052882634708534 -1.847995048329624
0.9550323777971644 0.2338310257261749 -1.891063971701435
0.367836856860297 1.355444807014996 -0.5615025420367891
1.960666174391795 1.275267080637929 -1.286722414088754
0.8810497483272322 0.115780855090529 -0.798328281378445
1.896883715599976 1.318852720216261 -1.556484165173787
1.86222982573246 1.343056504249117 -1.622655286437408
1.829495928428666 1.414631608849921 -1.624188633796902
1.822613721253406 1.365664454460362 -1.685426425874486
0.01180226241404381 0.9092111103193207 -1.126620062649769
0.01728198041086959 0.9620720230484378 -1.068818426601436
1.444133543035291 0.3885385602676744 -0.5951257344563072
0.2646059555281653 1.272401200116333 -1.870478191019265
0.6610904295251483 1.915236996086026 -1.467902602178081
1.330414260032107 0.2885595052791331 -0.6297751704109521
0.7785537075418061 0.3199466060908837 -0.5510801755643124
0.7078541562858194 0.353589147892955 -0.5451568853434308
0.40012171131896 1.592968101160251 -0.7128455810704771
0.3789116245335176 1.627006546955602 -0.7797745009729706
1.318626618201095 1.596059200176496 -0.5129854085171115
1.349665130525112 1.394290918189563 -0.400135911849378
1.393287811300389 1.329554234605477 -0.3916768068284837
1.334320497798872 1.202668155294564 -0.3295895352718914
1.703386991957145 0.3529918960481436 -0.9556749195768355
1.712144022392786 0.3329691322676462 -1.031091999089922
1.289575928277105 0.7307197511036032 -2.168495470493321
0.02671317736544376 1.165655361340547 -1.408968745812071
0.32562033421392 1.108588444290026 -1.980356499348727
0.5170814193664734 0.1243348900096385 -1.249490466420963
0.5482598457674668 0.1105646092759281 -1.180462105428158
0.4922134506247551 0.1415165055229703 -1.321825552445419
0.1214338533253896 1.326829587750159 -1.598287160958293
0.8644816513591462 1.666380449081037 -1.983192931133553
0.5131789776717091 0.4653009869520054 -1.940725891844759
0.4866785065700221 0.5334927156217926 -1.970327701816949
0.4466975354138359 0.4966339838399495 -1.913685947160279
0.4216107532495035 0.5659587908424617 -1.940705514670656
1.819584032250537 0.7172384249668833 -1.748325100476327
0.2890447637763599 0.3164232983366844 -1.08487718198477
1.463012155084473 0.3350690591355922 -1.836077288525332
1.508366532361486 0.3918467141900192 -1.859682745149707
1.877662407270255 1.285071300519933 -0.8647169190264722
0.5259034127641868 1.629580886350432 -0.634483685420476
0.4827201647767024 1.56832928785273 -0.6101379893757042
0.65188326849915 1.568391505217915 -1.995483626946479
1.561857378706784 1.789993851700463 -1.495409861799007
1.540772207514531 1.822328564725172 -1.427034322143755
1.496784558027319 1.833720628690275 -1.491070562702904
1.47409769747764 1.863498877860128 -1.422049589306975
1.428611284908155 1.872270922843003 -1.485448091119881
1.404530901210674 1.899369642459333 -1.415798058457422
1.448660963821886 1.887876235290493 -1.351878017004636
1.357758356626973 1.905406783740677 -1.478577151570168
1.37777708460057 1.92098800607214 -1.345213271249119
1.420631364458788 1.906702232547415 -1.280988977509305
1.174232644271473 0.04773595331305425 -1.500671440450589
0.01238365914986139 0.8570646222732368 -1.185320474028559
1.307062961038115 1.711264378597253 -0.6176904858400689
0.06294923131427232 0.8662891168879662 -1.572579070373276
0.0387571870514738 0.8825768292384818 -1.499447496526055
1.896245254559169 0.6129567277114039 -1.466660908002125
1.564635512293624 0.1755355014539174 -1.2880135356692
1.212874608314147 1.946103706248419 -1.005925875689161
0.1552999975819828 1.069639326641473 -0.7193096287853681
1.251133768166292 1.635516382766604 -0.5198967485883585
1.926101870542837 1.292597728471866 -1.488163588044359
0.9382913476465622 1.690214070714254 -1.970969194080289
1.213562867370003 1.83680247222805 -0.7458645775649891
1.887797416497006 1.459694385959148 -1.227710567999973
0.5205654542515564 1.734924112094965 -1.729613454569835
0.1269075847909477 1.010574840011368 -0.7625599449540922
0.4301685002053446 0.7234642427370171 -0.476165368572353
0.4605797596556822 0.7838156332813804 -0.4361879062748283
0.4012325656568104 0.7937305227537883 -0.4760940222955706
1.490000564716816 1.870922475781494 -1.287329448908801
0.7798810713392216 1.973249237943757 -1.315829917872701
0.7327859327997994 1.963606236642594 -1.257724182404871
0.4650999379737604 1.04738834157722 -0.4064146345941713
1.488402504689079 0.439501349031605 -1.91880808583333
0.05623469384469015 0.808687910317495 -1.519641857356916
1.380622203263452 1.875647647373988 -1.547267448657393
1.308657414932044 1.906000074438345 -1.539645413091909
1.330434472692141 1.87335730634057 -1.607854823522347
1.257455158120603 1.900997121052078 -1.599171919565367
1.278350066177844 1.865664939188989 -1.666107502597242
1.204543622379344 1.890577535579502 -1.656243227223638
1.224693081409199 1.852534220239849 -1.721909337147372
1.198157678547254 0.02643662298403282 -1.136387124998841
0.955114167470638 1.240022377862868 -2.21972909627545
0.8869101681955103 1.199312661891393 -2.223388490147792
0.4957081885230592 1.859746001973689 -1.169212742542136
0.758786345516172 0.4486618284043483 -0.4513497677755799
0.02726979117872808 0.9571672539958561 -1.477950206659852
0.02084051398701259 0.9000905209350265 -1.426818542420607
1.852728050811514 1.294863416254284 -1.681173326069747
1.810615058601579 1.317882959943322 -1.741786183768954
1.777257168059707 1.384796761306538 -1.747797897934296
1.763569701433712 1.333207228239458 -1.803113238045709
1.727389218163519 1.402449989651762 -1.805822751539338
1.711356377402844 1.349296722589437 -1.859888435631125
1.673000664188057 1.417808836109124 -1.860332599876144
1.654200717340892 1.363122287399466 -1.913448284212449
1.797364660227752 1.26172793133235 -1.793790482245111
1.689818346182299 1.293161312541746 -1.911972124865632
1.631218938015353 1.306323395079845 -1.962550791114238
1.593616990773077 1.375250938263645 -1.96190280347655
1.568744416903194 1.31739989112005 -2.008806363546344
0.8810911874471185 0.2549161524247862 -1.906285573801359
0.8245726882748654 0.2261773538394354 -1.858624490626161
0.1357802520475063 1.395130058796654 -1.561442553104551
0.8864157899079667 1.218515008938486 -0.2807993922379217
0.918374423339548 1.143956377889588 -0.2637881431965247
0.8708993408751224 1.081449032165403 -0.2617191315355532
1.754059038240502 0.3921920214331861 -1.001073448506728
1.760552672671186 0.3741372423262627 -1.077212730070351
1.716570568371549 0.3170550585579281 -1.108180299315079
1.762492951685235 0.3600989657035691 -1.154442870822239
1.716104067299911 0.3049684341846953 -1.185765372914204
1.759885705035241 0.3501814754446364 -1.23240453388557
1.80398917798398 0.4073395414183316 -1.201471837883445
1.798949979541815 0.3993224756473709 -1.279418394377163
1.183371872536321 0.03279479880490788 -1.425752255017352
1.254788017435787 1.573723833904125 -0.4715887792551466
0.2139545564457696 1.611697098131263 -1.160785534774765
0.25063124633944 1.644916698656161 -1.099903621523845
0.4031161531700248 0.6649418007387828 -0.5209830752984665
0.4422122888858173 0.5969362439540903 -0.524457115056481
1.135582072532464 0.01164701350010244 -1.180892289254128
1.205750654346561 0.02204274792712635 -1.214415152746768
1.460737686313029 1.886902162259963 -1.216453927360723
1.389833450479426 1.920021842375631 -1.210129077775218
1.428628446009653 1.897426005143174 -1.145576724030925
1.655708252750958 1.281840033758781 -0.5495623634861309
1.594449160060866 1.283461261228554 -0.497484279575736
1.282162581791831 1.932955229562602 -1.473559426257002
0.9396678371444428 0.28552620612713 -1.947056115383889
0.8250364364817204 1.313334120457287 -2.183386029678098
0.8284230735957875 1.388686666034062 -2.155253574404989
1.690563339032776 0.3770530095427052 -0.8824958206168225
0.8716988992703736 0.3099735954936619 -1.962321829397093
1.150224019541878 1.874755953208887 -1.710689446675624
1.169794714353279 1.834046198422371 -1.774915892191196
1.243654800475762 1.809220870164159 -1.784596971087452
0.8365780414517611 0.01494309305623798 -1.195629479065891
1.531657170876333 1.384986573995056 -2.004404394538714
1.502780404764877 1.326322431356227 -2.050453331168174
1.461790795967103 1.393082244899027 -2.045132447775344
1.43477362559542 1.333979388698607 -2.086319115177405
1.541726147252751 1.261744075013891 -2.048763306980117
0.2383085471091375 1.427775041052351 -1.736656598481585
0.2766602471750131 1.412795715846431 -1.803515400835351
0.6473444934225777 0.3142470040306824 -1.886692172246311
0.7197363712190867 0.2961130719699261 -0.5973166993625928
0.7912104183562234 0.2646069361540891 -0.6053264762344114
1.694792767204667 0.7359580240484106 -1.91898792633026
1.395387120648819 0.2861064687395014 -0.6720509963245446
1.624722909003558 0.6232487572848675 -1.9339442872623
0.560404903122524 0.1039265647507163 -1.311713446199592
1.014407800820415 0.2664896754625248 -1.929525583824809
0.2037651121510383 1.582987146819675 -1.088333707857184
0.2428358759724933 1.614287233429058 -1.027843109195928
0.2920676570989306 1.674275613964951 -1.039799633000342
0.2864939193505921 1.641654296451729 -0.9685948886012237
1.422448323663283 1.391548992775823 -0.4325485946612353
1.033011420616204 0.3863138746093248 -0.4611403257791152
0.2470681236730481 0.9935794266960023 -1.908067143876082
0.3081663190165215 0.9705281119935355 -1.971455172324785
0.8032632740703477 1.652260472263741 -0.5179816006460206
1.255257518813148 0.0438381640808021 -1.393520530311814
1.608420517534851 1.59219967842999 -0.7216781144888649
0.7322913921818721 0.04398525695663269 -1.369866227035825
0.8594370564198557 1.286346384041793 -0.3022406385383073
0.9364844463896151 1.28005079210834 -0.2921183119565037
0.3171146606927835 1.727579801227808 -1.184461872131018
0.9530735500167318 1.159006516457694 -2.236161668295801
0.8839147528959448 1.121828364792145 -2.235739349390529
0.1992457998643141 1.597310284212599 -1.2948679767643
0.4862867768103289 1.826547875520121 -1.480037679072915
0.5251273840191557 1.827755998724858 -1.548857834373675
0.3373291520189072 1.56422326805431 -0.7575373607854766
0.003425559687560087 0.933518004085756 -1.200811290571864
1.433580806816659 0.4437476584382436 -0.5410634609026854
0.1176200475877014 1.084704711433959 -0.7871493421828598
0.0928765162609434 1.026739875050649 -0.8299857569898452
1.189594842178575 1.611784070041832 -0.4820325218719663
1.190378586038909 1.549072200199761 -0.4361967603003661
1.664797265076719 1.235436988180211 -1.958952763548564
1.356462451287937 1.927733672525939 -1.139343984875068
0.8056521790401402 1.980903391520022 -1.242419697059277
0.7609271678007604 1.96882478622975 -1.185017583215809
1.900330262694097 1.425408889754967 -1.158170295684755
1.864703384178001 1.494552779870084 -1.162218422696525
0.8181051515171042 1.161638760800028 -2.219941841092761
1.525685269450396 0.3480287987732931 -1.796432566977728
1.476748511636358 0.2930782086090086 -1.77246764254743
0.428576546948411 0.9818419026716756 -0.42954554007915
0.1750466814854031 1.44796383947681 -1.594645355101369
0.1542628487798681 1.459510888178239 -1.521253414156766
0.7606448659639218 1.348991199745051 -2.156043190091444
1.748735534932133 1.536210091827473 -0.8602900615172029
1.783997910208051 1.530515792692579 -0.9276643511909157
0.2395324302149933 1.579727103265741 -0.9574157197585635
1.094831635563435 1.853630032135086 -1.762174510429224
1.113993823368344 1.810314990440867 -1.824799986517645
1.747039706133865 0.7766717710259954 -1.876143896882149
0.4072080147589162 0.2165431231659933 -1.063471223733605
0.4722221325362028 0.173685197673633 -1.053392853457196
1.73902197353352 1.454890981530368 -1.746911176727753
1.711138346841551 0.2970769437134633 -1.263469543134802
1.022619242783296 1.195021846043763 -2.230538040782505
1.498797129896362 0.4443985518069239 -0.5847869108526889
1.49825768744988 0.386420541791719 -0.6374156993833988
1.271610265499872 0.2730064084966846 -1.880641087773545
1.196891429688599 0.2699565617622379 -1.904423672555605
0.1008625846699089 1.339261384941751 -1.526502479267236
0.08782966074784448 1.267519229453162 -1.560449245548116
1.97026456109877 1.239859638214724 -1.21753408816446
1.955133022600592 1.279301459036633 -1.151452528607448
0.8124364181508834 1.084573761787139 -2.22860471160786
0.8818432427633293 1.043589173193137 -2.242037783907273
0.8139653290574709 1.005281156422086 -2.23252898715211
0.7481892290831822 1.122289350636591 -2.210019088545201
0.8807084241179191 0.965078015920189 -2.242244916818171
1.921837135002361 1.244635326185478 -1.550615790857305
0.3699799483018944 1.42167683246118 -0.5978777849023831
0.4186195997248624 1.403732360496395 -0.5436027949772667
0.4219461876482511 1.335364675194104 -0.5061019393374101
1.980151241513369 1.196375410335899 -1.277207388246741
1.973853780321764 1.203113598401377 -1.148246962220023
1.174677441397001 1.670322877430054 -0.5287822579408554
1.840597854860806 0.4583419932945904 -1.248639788496244
1.833026594037657 0.4520867198940575 -1.326535815861385
1.273809509553983 0.170925189290692 -0.7624927582844203
1.344489530462075 0.1790674564324284 -0.7945916971401417
1.204602924058278 0.1696291006229222 -0.7317126154974387
0.5504121280228333 1.584577807379477 -0.5746189723641579
1.392119336525497 1.399294944841519 -2.078737577853697
1.362031575740648 1.337498983242004 -2.118923227032951
1.403175184093328 1.270824974274796 -2.12413019867773
1.330291438299561 1.274348938510887 -2.153128022887097
1.547435539220749 1.440033567122115 -1.961817947374098
0.4662634832328115 1.145158205185358 -2.083099289482709
0.7821485114853725 0.03010402228330833 -1.141176650662903
0.7086717219944603 0.04735672258299162 -1.162829933884917
0.7291798031525822 0.05124732069939175 -1.087135717545427
1.14289956438186 0.01026421339843941 -1.25166949682983
1.919414480840141 0.7850401237579699 -1.579346723116332
1.133734705005567 1.908576521339126 -1.645731896046258
1.553945689646179 0.4531663074910074 -1.87778745261386
0.5360465869696097 0.1236189881888666 -1.379242224811963
0.4700353897617856 0.1640584592864938 -1.392615750899354
1.317121865676293 1.947260483974959 -1.203834018915295
0.4658389926417146 0.4249933489781752 -1.869709100706652
1.84313317238888 0.4681330158591431 -1.170981237681341
1.000124313380105 0.3215525162649079 -1.984648893254258
0.6494295157784491 0.3313341727649645 -0.5942665579057654
0.63875298301134 0.3908606754556734 -0.5439901728655073
0.5821936080063934 0.3715674524649009 -0.593867123207631
0.5725050118352661 0.4329825545086021 -0.5459124687920943
0.00690924683505989 0.8832994210415783 -1.262317907657601
1.376650860326154 1.454448480259642 -0.4427759244142494
0.5168979246291817 0.4135742613650891 -0.5998329154448778
1.393204202422075 1.903446393058515 -1.07919288636834
0.3726330589825272 0.5320286568578887 -1.872425532345956
0.01234608692343608 0.973392639071699 -1.404375504303572
0.2036103519529562 1.519801879033175 -1.5591432273835
0.3601347622578446 0.601266688408027 -1.90695070116111
0.4002493614490292 0.6379638973761614 -1.96360285310153
0.3406869809902755 0.6744462042012759 -1.92773229892438
0.3827452124977774 0.712204854298111 -1.982236629386986
0.3251534857301256 0.749633995555264 -1.94418948853766
0.3692063501787795 0.7882234117523643 -1.996491827159156
1.532372576027784 0.502530345122479 -1.934911222546092
1.463828878324816 1.325075051892743 -0.4258707733195765
1.066742626897068 1.128450421858978 -0.2605325114592549
0.9237379685022079 1.631794938192932 -2.021374914438899
0.8502552002360758 1.605957306976738 -2.031276031288021
0.1889924593954033 0.5556302199490788 -0.8694710685637961
0.2837587407631688 0.8912481457579947 -0.5606731596943552
0.7464912927240693 1.274812297369013 -2.177475895401089
0.9715013352734345 1.921988442593411 -0.8638327592441588
0.5469595494873229 1.175824651748026 -0.3760205711591629
1.259826241460771 0.04727891195310108 -1.092479040635534
1.493524651824857 1.822019272195259 -0.9658913338514123
1.417457693603178 0.1579313687256392 -1.591539886799829
0.03476142766849311 0.9387587549878768 -0.9959055128642114
0.02878898976191546 1.015321078221874 -1.012272344573799
0.01432584718867347 1.038669244834795 -1.085831933727718
0.0287332436396468 1.091701976061557 -1.030382979767861
0.6289585042027523 0.4523153029560749 -0.5000868843522971
0.3165826596065324 1.182924474291429 -1.956738548230337
1.057354885313162 0.00692066151710824 -1.147511734285841
1.849733776056062 1.526882845566751 -1.231372684654253
1.581242497050223 1.805967269958151 -1.362133489105734
1.841897506950371 1.290143794965347 -0.7949998175452495
1.873328466087266 1.220279220675626 -0.8155181761451892
1.834655997285096 1.227112631692263 -0.748233900386011
1.906228967827998 1.217184817220824 -0.8872606817035691
1.721305536180223 1.221458901833354 -1.906257783401101
0.5741759964926887 0.3401843441507956 -1.86912617319355
1.709245239972903 1.288212608491327 -0.6066457570805918
1.69889058319736 1.21768917066067 -0.5687046325600592
1.560368491334516 1.403760508572049 -0.5268370822303465
1.800079621849277 0.435142337354877 -1.047989060562044
1.783039768838254 1.569698369600823 -1.499584631121182
0.4540903616314695 1.822756811385368 -1.408284225541655
0.09529182903351086 0.6128033380170534 -1.072287112634639
1.352894146099803 0.5073127896119388 -0.4545598486570339
1.083923763325887 1.838018485118996 -0.7108508364579585
0.6389429309733223 1.760413028677962 -1.789823877503277
0.9531858052422025 1.744099665667979 -1.916426379071222
1.012549719495226 1.70965198425431 -1.95444060486638
0.3246706712182595 1.438924937362381 -0.6573152633578003
0.1736610396014655 0.5327539926191784 -1.564396391700271
0.1811018330837522 0.4844716101863038 -1.50226230696897
0.1436224966738181 0.5462205040544361 -1.496377232828452
0.2261413447656243 0.4194921293895487 -1.503285202643509
0.1201405031742058 0.8793627510695813 -0.7903328160332082
1.434329607489283 1.262694783107263 -0.3884030855519305
1.948145296659721 1.217449589377041 -1.481810639319694
1.955914341530227 1.241477579779726 -1.08291813347775
1.788455847504032 0.3958365221053448 -1.365429062696245
1.822771268031763 0.453363974269084 -1.405680749852105
0.1952689758775876 0.4373933688551478 -1.439424806735374
0.2411086039619378 0.3745728763339792 -1.431451817302139
0.7957132886948504 0.1253251233078816 -1.68955750439249
0.5957044242597133 1.643256335340779 -0.5997951288395467
0.729746813935277 0.3925552030327967 -1.996976595389266
1.030930725848163 0.04853068608525279 -1.556185295004685
1.144762423294671 0.1358442247503566 -0.7680470594502589
0.3379199927519385 1.699611259524568 -0.9813103099319691
0.5554008307754793 1.894667688290096 -1.206396029372059
0.4960705390750609 1.863741181798319 -1.247496147459862
0.4380065672154018 1.826201454541503 -1.21057236983423
0.3163173932086405 0.8255645902667264 -1.958625698801671
0.3596560085385717 0.8642850785364273 -2.006003328492264
0.2854658651547712 1.605208704543837 -0.8990535737675172
0.04546193826997869 1.240172929884681 -1.073438247461965
0.5085610427896725 1.521606444174056 -0.5525657961268866
1.114527783609096 0.0281285414467316 -1.455789345766807
0.9094574032212102 1.344534314985382 -0.3156027911181951
0.986910533063098 1.334378880222117 -0.3076521712675777
1.52748157553811 1.849154476166662 -1.223545074674938
1.136600196891443 0.1725820050949546 -0.7052800279808595
1.072192317908998 0.141736931526608 -0.7418929497344442
1.350068888932275 1.835711992728447 -1.673127921805653
0.6081971529568286 0.2838818185214679 -1.827637671213318
1.750593586645969 1.225250787321462 -0.6288145602986152
0.2412492043877077 1.542386722856595 -0.8892869935439018
0.3795896982685034 0.6086095351277454 -0.5703643906382525
0.3419508681572042 0.6756436301571933 -0.5704675979592002
0.4205046329964142 0.5418303872633611 -0.5760076220118377
0.4872413043887531 0.5289765481553141 -0.5322149152515291
0.4275033770018478 0.7511918581678977 -2.031243960113464
1.666601049941194 0.2553133251443279 -1.217063750825264
0.6617051900396567 0.2725551073578975 -0.6530238281783644
1.867752100167536 0.5192284400187113 -1.375956340721653
0.5191085536848816 0.1477950295359381 -1.456131281413815
0.6831806274857728 0.2617421203372096 -1.845483659150687
0.8133018463601128 0.9268157560662538 -2.229687636886014
0.8805173015928928 0.886779500500543 -2.236359469602462
0.1778671521928629 1.521251797006294 -1.478897672933204
1.121359943596876 1.584636112396586 -0.4478326981408617
1.124569533863915 1.511066286820668 -0.3995332565536369
0.7656628508463748 1.42139453311137 -2.126078049028967
0.8350646599192747 1.458029017262111 -2.123502005114104
0.7705338236518782 1.497393757987545 -2.086626991811285
0.5224272149291858 1.862645576246403 -1.416633864332006
1.212895787572229 0.2239507276807154 -1.843652179787718
0.8547767552631536 0.01888234011439294 -1.122256715837222
0.9111679267384704 0.006778276862800414 -1.175036866071181
1.319286972094172 0.2051240418558178 -1.765972906861691
0.6575187511299685 0.07118817699966595 -1.108524943445074
0.4007312956538379 1.052009637584006 -0.4511433059743114
0.4372472121908796 1.117081774425783 -0.4317083906635892
0.08700346555153537 1.0995120651822 -0.8543553652982678
0.6172606699741574 1.919969124997583 -1.165339417067031
0.958859567746415 1.402264518668651 -0.3354013329037336
1.036396412963609 1.390971918277222 -0.3303173045870592
1.008352771047031 1.457633027712385 -0.3608980693066562
0.07823485609151126 1.363876519038143 -1.383951104392785
0.909860406950922 1.569461062464457 -2.067061167907152
1.511275799874173 0.292512000856067 -0.7620883404443601
1.735660016575232 1.588978792943431 -0.9154729884218198
1.698396350762645 1.591586506840467 -0.8471750477369671
1.370302785051722 1.206833337754658 -2.155591418784546
1.296337523191806 1.209614494892923 -2.181797100166839
1.255358841473494 1.276382995243267 -2.176501107404452
1.228297637797595 1.221328730045343 -2.198100090619421
1.181836188907379 1.27918113581282 -2.19286451508682
1.441992503230189 1.202572006407606 -2.123846216051948
0.1677965993809388 1.54637559018179 -1.155600770916437
0.02161134218364835 1.030336652689056 -1.454536846949251
0.8319946408766179 1.982485992501644 -1.16940549743386
0.7891460434951171 1.967612782135246 -1.111197576120854
1.199114478380112 0.2529471180950404 -0.6157560279065238
1.593343986068374 0.5455486751846529 -0.5856078661136414
1.9715009800157 1.165786840183287 -1.08058757586713
1.87448036215708 1.459408951216161 -1.094348107161881
1.836511743061958 1.526227154018406 -1.097248286120473
0.2891304100276338 1.479913754111814 -1.764147074937537
0.3302933128098764 1.46357672399778 -1.830163402930861
0.319375494031869 1.395085405252979 -1.866974719442966
0.2877593227526706 0.7109089695460657 -1.889640206510932
0.5761861540345916 1.536746729029103 -0.5204215101549611
0.001183100016300953 0.9584334363831362 -1.275239276852526
0.000724613020173015 1.013261550197926 -1.214323225164474
1.459844217545559 1.872699213745005 -1.085867803527879
0.2008789788170433 1.518486754110607 -0.9457351822583572
1.95239275353789 1.19972010505822 -1.019652604433976
1.706401584257602 0.8103900965625155 -1.931941996270047
1.757192722401946 0.8605594716675581 -1.888134406061841
1.794115119301452 0.8187940947173431 -1.83012550123877
1.657071810031383 0.7713818958879345 -1.968324716917277
0.3407852195676909 1.727374328462773 -1.059310567799594
0.9050933239628579 1.989434979056107 -1.359595369718898
0.497506102242273 1.786441018068915 -1.60918018850568
0.5661293439859586 1.824023253140568 -1.614337662249706
1.516228498213861 1.799069629639013 -1.558213991603937
1.949456796920816 1.26436402043226 -1.419243775311698
1.968630891974716 1.188732615491763 -1.411660740323383
0.01890531187370348 0.8065435095130977 -1.244727503546139
0.01681883613967006 0.8307575267243729 -1.318642437819441
0.08298559382973425 0.7930933269345235 -1.590990040202307
0.07870801463899579 0.7366979316567853 -1.53616970230226
0.05507114095373145 0.7524875608893149 -1.464119228064638
0.08026664633773417 0.682078578033033 -1.480253181553835
0.8321655367749388 1.355443568993019 -0.3304939031113168
0.148938068430492 1.143582168283072 -0.7449477753892082
0.6793592600859768 0.07748098763151201 -1.035178707465817
0.6104803709980698 0.1011596891317811 -1.049100636684627
0.858247117064496 1.977919740828541 -1.096445121610179
0.8135079580090603 1.959122255309383 -1.037149776499313
1.662814984032302 0.2525611012242558 -1.294848517691911
0.3817021335150772 1.489960085032041 -0.6354702095296051
0.6064866678121014 0.08901636259783674 -1.373515463711636
0.475114338112915 1.387236288017649 -0.4920137869409044
1.791019920118509 0.4558258280730569 -0.9704254006828719
1.455520551460239 0.2385633160971836 -0.7887894151209855
0.45979186765362 0.9116923100398772 -0.4131147476262096
0.3896347272512704 0.9162111707245059 -0.4623238826071905
1.466012543217291 0.4902740099688788 -1.973195495458141
1.508786860793718 0.552266091657431 -1.9853028475424
1.024122408419007 1.193819407669099 -0.2692593887154126
1.059553900088648 1.261689322360874 -0.2866869503912356
0.2502575820313422 1.496145705461564 -1.687864985641188
1.310446558044012 1.402892070351551 -2.110988335720332
1.346731138230058 1.461941278616995 -2.066325776201746
1.597412904277971 0.486409098178291 -0.6341086074898243
1.648149384244512 0.4822568380289308 -0.691569705392285
1.256418361870302 1.508928095857208 -0.4282690118153585
1.900608788176231 1.152808641842205 -0.8431175481320413
1.50348417589195 1.257308252705602 -0.4251993284944574
1.477586888476034 1.197676500216606 -0.393942311980148
1.54473206189008 1.195741266562148 -0.4345539028766965
0.7355694784391112 1.945642282802431 -1.060692915496427
0.7670077383873358 1.9342764857853 -0.9801073284854026
0.8433078266840062 1.94570394285606 -0.9652341044155517
0.1302462193672372 1.489772124696402 -1.31042869306371
1.024637249158373 0.0006179846321067162 -1.275071763263007
1.040544841664282 1.827930242078207 -1.809363593798113
1.146132075740256 0.2328150012360996 -1.874557918940652
1.772808392966992 1.574390110144059 -0.9801052258222267
1.125936555291544 0.01701725172605295 -1.383734440728998
1.845731348722837 0.5084007292000307 -1.457529859866936
0.8135833790470258 0.8488049959825128 -2.220767178159948
0.8812710548842453 0.8091769219356713 -2.224417769988702
0.814808189362306 0.7717303950085264 -2.205822672209531
0.9485727077221655 0.8476207823169067 -2.236983185078276
0.9495891333239693 0.7705480094480897 -2.222013646279072
1.017047995006526 0.8095813074441559 -2.231554933455882
1.02016533055624 0.7285816287012239 -2.212250189485602
1.087375038814596 0.7687353308634972 -2.218959367260223
0.8782209176413088 1.992297520445795 -1.227295682855402
1.260009233559977 1.15341916043512 -2.203340316820251
1.145315301925309 1.213340531075954 -2.216110387495438
1.386461153432522 0.2110432062117902 -1.727697555387332
1.322858212606463 1.928757857197998 -1.067869779428169
0.3662377766905159 1.16447050086219 -2.005840524616112
0.379931537519542 1.091411692764249 -2.029204083833687
0.3612525674692836 1.239993349311314 -1.981030033392443
0.6326890658697568 0.07141120380119481 -1.302967209124343
1.486094158376091 0.4973401820872544 -0.5351254818861111
1.98288943158463 0.8160239677264383 -1.259010262378013
1.385311207831233 1.557311386036439 -0.5145142475113611
1.442091934841157 1.450354296792143 -0.4742837319552613
0.04838762854350331 0.9917041177986328 -0.942811014472453
1.332213984817897 0.2451233639100935 -0.6844956829722685
1.87586620344835 0.5185673379623963 -1.217121654841504
1.846473869772697 1.481206140355345 -1.022134604916965
0.4380813237018265 0.2124183858095804 -0.9970917118469198
0.3774338921573603 0.2563964452558208 -1.006145135915875
0.5057240291978834 0.1764991115173766 -0.9715443457999906
0.3726933614016429 1.448310658713289 -1.886791908282829
0.3669821754622941 1.375106787967399 -1.927187811052688
0.389371282590913 1.513958678669227 -1.85247742372301
0.8023086912671977 1.91905606946848 -0.9090394632444105
0.7252771548945496 1.904997822048876 -0.9251826660044806
1.062107112261952 1.782320249114392 -1.869772324674212
1.133354206776753 1.762387613316109 -1.883231223643552
0.06052883303005963 0.6971541194325546 -1.410244497738509
1.907940074846675 1.388772480261168 -1.093472752918239
1.070795229170283 0.2993607772962892 -1.959994869795456
0.1635453891756177 1.521976748363489 -1.083015095896336
1.066816773569138 0.1811851356740608 -0.6798441119056086
0.9998565332792362 0.153303423852708 -0.7179239834781567
0.2643094156604906 0.9204302426016797 -1.922627696293993
0.2145899635482761 0.9360274589334 -1.865661098844473
0.3100559189523633 0.8181337433609055 -0.5493561320303908
0.6885139985557638 1.326249858410175 -2.142489496179996
0.5915514738631171 1.860490862321731 -1.554508254990587
0.6357729318510517 1.855623800533357 -1.617758826934822
0.6098726963615309 1.814719314976389 -1.678990821300621
0.07106129320344678 1.283548839937349 -1.488060778763179
0.06135442814519965 1.209857653540171 -1.523686418530384
0.08259186742024782 1.197190014781551 -1.59565650051313
0.05793108645841805 1.139469169793431 -1.555048377828361
1.596001010172203 0.4197439718574472 -0.6949452840683696
1.654187046715202 0.4309948880870568 -0.7517305041175193
0.4460153264767897 1.832071879922713 -1.277520322368461
1.540979221366162 0.3111357394973587 -1.732501308446112
1.587769143195915 0.366054759777187 -1.752633929122955
1.490078723317927 0.2556407257159539 -1.703599069375587
1.02142942925529 1.130271802295994 -2.241246708488026
1.937985980524338 1.173525463474554 -1.550118666306741
1.904535219252498 1.198072584193248 -1.627602023991987
1.710294307831353 0.30118327767599 -1.334481861146081
0.4542211069511161 0.1892125508168183 -1.461539859481291
0.4073507466609542 0.2089245861976806 -1.401547194609998
1.055675427395885 1.324526203957496 -0.3057632766465693
0.1090040287395281 1.420404279366616 -1.421424680509676
1.204366175485375 0.02172760213643088 -1.284893866162175
1.271024317542055 0.03743289646605641 -1.246776570903863
0.3935861549425065 0.237741942746899 -1.476329190948305
0.3480289433673028 0.2589853542546681 -1.410720366177298
1.875647411220458 0.5288164802721282 -1.144039148928647
1.727257395507249 1.627801620952606 -0.9725800919016565
0.7623436193703877 0.3335732896474799 -1.95667877035804
0.7987234454463383 0.3769243540429076 -2.005820407241138
0.2825129847784629 0.7609062753073753 -0.5957473165503276
1.69074959431965 1.153733636498007 -1.956562783449806
1.627978368595981 1.180112568592365 -2.007101466918795
1.73834111613714 1.156013586370202 -0.5938657476634296
1.787405334026621 1.161013585785815 -0.6549643160794308
0.3361713841277322 0.2930035440690484 -1.493900758609282
0.6370567475207174 0.07043936094699998 -1.185275863828569
0.08876253367170805 0.626236956447088 -1.423053365276896
0.4718894502461267 1.315653249622305 -0.4616712150114392
0.4232408245592096 1.262664501301241 -0.4764651182389833
1.163391253379859 0.1901837876237773 -1.813472271271255
1.371153537122948 0.243939693792275 -1.789089848966019
0.1358542556098837 1.502654180298423 -1.225691411374335
1.932391021994984 1.139108019788469 -0.9163895371339816
0.3120051478542665 0.5399360597750906 -1.811252398057863
0.4752507984849677 1.2443286596713 -0.43456037527444
1.36162242078289 1.898301259800536 -1.000432230791129
0.8947832154230964 1.928718832355405 -0.8944570930651119
1.401979141051184 1.135912165854202 -2.155505744505562
0.3597343517700455 0.5548151549518368 -0.624004510051295
0.7138247673609621 0.7569513675133686 -2.176839305635217
1.096010283796057 0.6703496994494602 -2.189208552320697
1.157250040663848 0.7323217535000646 -2.200589701744101
1.152290557675791 0.8142083787392557 -2.220715745989577
1.018444524435281 0.66686565619159 -2.192698949025455
1.101206962228777 1.275940439501972 -2.205831588013224
0.3934932246788666 1.753240255043241 -0.9954834982325236
0.6175598475244986 1.923963572606368 -1.244446058067286
1.073318570152105 0.8583788596750329 -2.237202025871051
0.01754635066590904 1.110546069831798 -1.099785508838627
0.2572288693913707 1.589418988849183 -1.567610300712028
1.068670554841224 0.3453440685325403 -2.002801412254434
1.049172920655932 0.4382566674720481 -2.075848928215419
1.085820536389252 1.445030425250716 -0.3586062844427118
0.3085364487132739 1.54304286039983 -1.726426918856104
1.219865483028057 0.7797950091560741 -2.200352003933419
1.012183764710796 1.873062933657258 -1.737455300259679
0.008293374285556099 1.048442388998123 -1.369043283986231
1.558163420035336 0.3490763066981822 -0.7354594845565823
0.4991162111676867 0.1795642188606471 -1.525681989094766
1.086527543613311 1.153205348577119 -2.234398854816283
0.03479249196808487 0.7743140807747995 -1.382061850291054
1.59536135723915 0.5166931030486708 -1.891840554706256
1.615580663261958 0.4698949194272655 -1.83313724848353
0.9236557105849688 1.954662205721749 -0.9622646659859124
0.5595495995213233 0.4885766385769991 -0.5121317257741921
0.492260428684778 1.857288496645813 -1.335187799827182
0.5256565955886048 0.3126657394385277 -1.800063586278734
0.5698105920126408 0.2549816808436843 -1.759788953761244
1.750453424270368 1.150168824491129 -1.893637306370468
1.783490464803273 1.082170197567292 -1.865947035218211
1.80134789571613 1.147747856646807 -1.829665525012144
0.7524822827299208 0.06000554746322828 -1.015169403957866
0.7015089764227114 0.09294412437798705 -0.9530947165452155
0.3836697915340701 1.717690591340247 -0.9258745779269542
1.828850451453969 1.110997222712152 -0.701651073061376
1.838927523942354 0.5063833200248058 -1.020777001977949
0.5280404909622819 0.3549489249415344 -0.649031338258979
0.464307558620809 0.4008883794434898 -0.6549379239412462
0.4567846761227116 0.4657254658879244 -0.6023366351998769
1.530684573262856 1.312560259076518 -0.4621675507147224
1.9108679954499 0.5913570420572047 -1.192290141320195
0.9484716078713455 1.072106481393466 -0.253935002047713
0.8788069326738084 1.01169292849761 -0.2574399182642801
0.8209123705839556 1.017454234411091 -0.2663217138254681
0.84748149057472 0.9430298020015521 -0.2633427642677988
0.9442722596340402 0.9369882458088448 -0.2535443121806883
0.9882034568501009 0.8668304694474565 -0.2589769338193345
1.067299016061113 0.8580846508619401 -0.2624115856713241
1.019914871231875 0.7957459870989992 -0.2712846705411958
0.9400237137724845 0.7990088566938554 -0.2722447108796373
0.9728257223077845 0.729948108388109 -0.287537775043225
0.8946354388297298 0.7402583017744589 -0.2900872125800655
0.9272640183745062 0.6743123634141466 -0.307324530736003
0.8600877227740835 0.8111392587112719 -0.2780143133351549
1.005315106553951 0.6657472572695933 -0.3075315105429144
0.9592872335443783 0.6068002854235814 -0.3314487193931125
0.8814115278682253 0.6164750363361472 -0.3341149763621573
1.105356289561847 0.7682835330108121 -0.2829387138470443
0.9136806112862399 0.5501620465316647 -0.3610709934131395
0.8361212400768481 0.5611232632004107 -0.3665233664990375
0.9917524013884277 0.5417887004608237 -0.3611949695845766
0.8042882052716736 0.6287058009420754 -0.3423450484076277
0.7617011530290013 0.570526973574855 -0.3789279139442481
1.144821144449999 0.8499181695321563 -0.2719906542963846
1.185644531035253 0.7733165265073616 -0.29388771007689
1.22567135986503 0.8406140561522719 -0.2889232297883603
1.345316320076976 0.9320175020664689 -0.3139791567154003
1.379143484686755 0.864297790490493 -0.3346666572478514
1.450448963147869 0.8646707187555029 -0.3675138996919796
1.116652107174591 0.9194769308111762 -0.2600968121982131
1.253208527464259 0.7828668352453072 -0.3072706483921309
1.303495862504703 0.8345710458014418 -0.311637851064261
1.359810759496974 0.7805908947967576 -0.3431395576473062
0.7920102195464751 0.5083563497886212 -0.4044074430118687
0.7143235165074746 0.5224897198510562 -0.419113197161357
0.287810752493625 1.56019295027369 -0.8269511444289652
0.2433435023150239 1.494816839305559 -0.8226509154675044
0.293336176258564 0.3141304039478107 -1.423807759971583
0.2448150972934333 1.538528462219665 -1.623741699711708
1.503718769556518 0.3360208147114713 -0.697370790945638
0.4295607387026031 1.488412784690613 -1.910342336156967
1.80266907709715 0.4499053460276597 -1.480473912500006
1.826545838035245 0.5093642775186913 -1.525859684353947
1.986592812709896 1.125670496542073 -1.145877244523376
1.982075785565278 1.089571578131583 -1.084156447826998
0.6539654425703665 1.889735258350148 -1.54771001849631
0.7015337671634538 1.886713663682599 -1.603067679765429
0.3908344517611371 1.792938596835131 -1.262873091624761
0.3795630171846466 1.780967643636988 -1.178253990026825
0.4502785450653125 1.549777153481776 -1.878928774579416
0.008439474713123785 0.9108501947563926 -1.344127769111146
0.5399230850562651 1.478601638381708 -0.5021566313229756
1.78339337869472 0.9321224475004977 -1.867808588548224
0.9787547797433508 1.795086983178919 -1.85612319687972
0.999223667079689 0.381788609840611 -2.036011497615902
0.912235576549064 0.408434982773927 -2.0514663039521
1.688602770184902 1.142575694397853 -0.5390158959156336
1.665093009438665 0.8453432961095038 -1.98057004642782
1.580516184784664 0.8674123801174478 -2.053381280748399
1.151069605682601 1.127779583336944 -2.230229744662515
1.864437415880271 1.150680539997826 -0.7703716763032002
1.054982390285013 1.553932409229019 -0.4192558620343559
0.4211844645309206 1.220353807303677 -2.035122140501984
1.675023395860459 1.089108971295593 -1.982395389305296
1.052218145539599 1.6175464497953 -0.4652008870917177
1.089460965094324 1.671010212047187 -0.5139687295686544
1.977717545756296 0.8542741175240591 -1.401103831509636
0.3375320902794972 0.8762712200653706 -0.5111986345394076
0.8382876931874896 1.539470562187553 -2.076329620888917
0.7780734538434002 1.572292639370214 -2.039449012307747
0.7089632949358369 1.537028663939985 -2.041768811214631
1.267063114349208 0.9151955168042152 -0.2900596411318056
0.331429909448767 1.50183890589192 -0.7012088315638483
1.393913519538395 0.2413974600026769 -0.7310064302570942
1.26932266299671 0.2051984765670494 -0.7061656120241921
1.920853671091248 1.082062458332386 -0.8688251459366489
1.371701219149009 0.8576881338694604 -2.167379712246562
0.5361333754302211 1.367008097088166 -0.443691863316534
1.81317468640141 0.7968786603490717 -0.7045747981855073
0.7388525314862446 0.9648523008895543 -2.214658819964913
1.963123886652315 1.136072918346549 -1.482113204821254
1.234557867591857 0.8517198136500086 -2.210726596429376
1.289806990666778 0.8188442029702966 -2.189784275971459
1.270639779551232 0.932122447501985 -2.210284722148249
1.345983480086596 0.7836637289479965 -2.162958952710626
1.731315855088691 1.079094075667756 -0.5725627355317982
1.63065018257236 1.123799570867084 -0.483870759287589
1.63417963706776 1.200221680513501 -0.5031884664917434
1.828929858569132 1.08896818248002 -1.802231791984815
1.847159264464739 1.149925959680357 -1.75974835678547
1.890837819944572 1.130968249524351 -1.685034821793531
1.868862541899566 1.20017459675891 -1.702778106909149
0.8087129205003964 0.2810799363080794 -1.918253840421226
0.7244054814934084 0.2946182330861081 -1.903057596445027
1.213300542180675 1.337165996333931 -2.166963450537467
0.4439720404178605 1.508436054968537 -0.5924852198079854
0.5687991472536307 1.894559884124257 -1.367594380420156
0.5889172950600887 1.891618794901569 -1.439807624392593
0.9507230640259996 0.4727969050202505 -0.4016906930695694
1.031823459597248 0.4801790431739319 -0.3963177170260042
0.9270575065041889 0.343810738707059 -2.001062611242523
1.996917333733129 1.067982497931961 -1.289168988720173
1.870618025619562 0.9327506368415223 -0.762658459988198
0.9018437781631155 1.500052565607569 -2.110414311680132
1.935964730763299 0.9321224474976163 -1.595489016661124
1.915863668065828 0.859538950075088 -1.626117581310684
1.883136510338523 0.8637957926907359 -1.698907917081389
1.889078982632343 0.7958047326795437 -1.659686289061968
1.855384328584651 0.7923830924099439 -1.724565980759818
1.942964781705414 0.8640120157584394 -1.553849779669457
1.859694461054767 0.7399797201074831 -1.689675889350747
1.870437018081395 0.9327446387854301 -1.737663935452959
1.18052259917324 1.059492054361297 -2.23176997644846
1.117360956213067 0.9452273223388223 -2.241577712405124
1.270812476151574 1.067982497932178 -2.210228609621456
1.997137954367361 0.9352738178577618 -1.289069442091799
1.989376255687895 0.8712463366978549 -1.317506435747108
1.978552881196751 0.9313010854650888 -1.444202775065812
1.990822628729326 0.9325727214936258 -1.13285017920999
1.987438611207826 0.8614013681349392 -1.174135592396087
1.99077432408831 1.067813330031444 -1.367335378285491
1.42106159398295 0.9334383976001738 -2.154586473013224
1.417529381565062 1.067877552499529 -0.3438753654178854
1.379208997718224 1.134444547391361 -0.334508219738554
1.960055474635505 1.067318974166369 -1.521590944877738
1.675074820628099 0.9339703168455646 -0.5152115491541355
1.960228609621512 0.9320175020679726 -0.9791875238485854
1.964104385422828 0.8706519607151647 -1.018112486878571
1.943075944422067 0.8703287360094671 -0.9437433652187698
1.936544033551041 0.9334510660594496 -0.9058248808944449
1.554284928996219 0.9320175020679312 -0.4204539811061878
1.486645746986639 0.9320703083092148 -0.3790456533625823
1.554138024498295 1.067877552499542 -2.079652751259103
1.522732636684191 1.135241233892025 -2.091700896518803
1.554431047042526 1.064005911459441 -0.4202352999954899
1.428856216438955 1.068878605972817 -2.15074307283537
1.735312360587053 0.9314858185449231 -1.924256286071874
1.039168988720176 1.067982497931967 -2.246917333733128
0.9204070525884495 1.006967717092438 -2.246803096725157
0.9480810251050678 0.9249101988731885 -2.245824252472591
1.141282500997302 1.340969170177268 -2.179397266996505
1.287891756085326 1.338819458092492 -2.145723010531726
0.7511860389611045 0.8841838389132616 -2.211601908080088
1.595798971536682 0.3275304688155828 -1.689099436511188
1.652589710609262 0.3857753408929777 -1.693683150177896
0.7513684389624457 1.040256168850012 -2.217761224541234
0.6882461849923052 1.079394771943881 -2.196840022926855
0.3773976448012134 1.124659057761418 -0.4774545795754406
0.4231322334024793 1.191336620959755 -0.455887994461429
0.3688965525570312 1.215170786036782 -0.5047416746778919
0.1519473292833459 0.6244051042832952 -0.8761883602642798
0.3166098594444783 1.229947831183034 -0.5571061331446763
1.166505630851106 0.4161462361602833 -0.4553990578000354
0.8082732207258654 0.1399007242497511 -0.7772737811766048
0.8726714179676968 0.151764403549445 -0.7359145935626901
0.2622301581289996 0.9648289309898938 -0.5758645118892453
0.5923969537826794 0.3087037923799987 -0.6533683631883364
0.09307973796033653 0.851172642052204 -1.644139640011236
0.1151427762912939 0.7777196460814563 -1.65941316284698
1.121639655115768 1.378724378581479 -0.3325188615718633
1.162590349275564 1.429244555189482 -0.361566834161042
0.800582429204715 1.097302565013883 -0.2749282881244957
0.7201893914659726 1.094614374317672 -0.2946183257334832
0.6770958170728112 1.029287789909053 -0.3040216101779238
0.8212516001810586 1.235851022842072 -2.205208513669406
0.7592768846565912 1.189584641807934 -2.201898127600806
0.6873842020073406 1.162566730272299 -2.185865065623237
0.2016565088439217 1.420606352455585 -0.8190267219388966
0.6182629146837082 1.598658319467154 -0.5458089646786282
0.6665694137575964 1.653954544198771 -0.5709068559616989
1.536164696190559 0.2271262400747793 -1.589401782225636
1.483807518722037 0.1794150855131197 -1.554254306369828
0.3727243912861016 0.7378938877475508 -0.5166339954480337
1.724027842088891 0.5255266710861888 -1.75065831065663
0.225812416863415 0.6797419511033627 -1.795956379424265
0.1145901070959791 1.157298293770638 -0.8126139367509104
0.8680722620642158 0.1031049877178212 -1.672107105965414
0.9273088585907485 0.1205723420661376 -1.720449776726041
0.9145672335945724 0.0314750485994475 -1.016203804695472
0.8394520003412154 0.1809975911750157 -1.800871486051362
0.7675473294481785 0.2057609478151714 -1.811382297492423
1.357701616463302 0.1497159591221481 -0.8639085556400239
1.561550682299432 0.1807335160745892 -1.366031286839101
1.611034148789285 0.2235845401864378 -1.404325314760243
0.8974661744083097 1.422245958452979 -2.150663735907946
1.258632875403434 0.2926105639146466 -0.592193629192148
0.5047761531208181 1.112757815193674 -0.3885831342521009
0.9525700767886595 0.09654040614803361 -0.823958728922882
0.1698371395299098 0.9519783547617043 -1.805448959567596
0.2483878648664247 0.6473735003224039 -0.692565026173389
0.2962433623599496 0.6516812460878592 -0.6308064594566054
0.6988079169280887 0.4546543664948852 -2.032228527421308
0.4635440617174454 0.603884914315528 -1.995189818217189
1.106904673473134 0.3715592802719327 -0.4795237495047161
1.086674609484021 0.4325678167381567 -0.431154331104151
1.155082368212421 0.4778508945026582 -0.411364339717209
0.5402709210750729 0.3988503362842962 -1.903657598292359
0.6642471309806153 1.63150559613881 -1.948906784192726
0.6971039212913317 0.4131140590881754 -0.4991212761950472
0.442952416540452 0.6761923545404405 -2.014752638768782
1.172976781308511 0.3192236323902693 -1.96177424119748
1.246247542199109 1.693000470165772 -0.5724215939753419
1.236831556225724 1.745228790709618 -0.6266663305474487
1.295709916395202 1.763218155140863 -0.6754970034813403
1.366092412160217 1.726311121955867 -0.6682367320963598
1.158404980299945 0.1037661602331621 -0.8356658755630137
1.098220793891652 0.07737012451725056 -0.877029775298376
0.9968663045732072 1.654505756942372 -2.00605052349844
1.066036816067288 1.672442264066355 -1.98719776208356
1.315042921746455 0.06918571295743836 -1.43529090775023
1.32511214335311 0.06072809442467975 -1.359865288609523
0.1723043463720216 0.5821377813239244 -1.624581194360397
0.572243140597525 1.684506867218089 -0.6596827819168672
0.6215090009576905 1.737263993825025 -0.6903694369915738
0.08511293161882161 1.055908731172443 -1.649819791765716
0.1398945382674514 1.421297656349444 -0.9623771923989602
0.1197969598617058 1.424351647904645 -1.037471679412092
0.4048742242754728 0.3724613750755243 -1.752016518947512
0.4072055036396394 0.4238686250534047 -1.812732017826436
1.066356100937529 1.959212227369231 -1.524788592801316
1.153002149198515 1.953101886682936 -1.511126666470631
1.164697058122894 1.969493310116609 -1.431542283462572
1.038626771203767 1.937768486487702 -1.595106126136493
0.9694423816883456 1.930434151502785 -1.615182860606043
0.5963433133078664 1.237204624389511 -0.3663738089797475
0.7244337197196209 0.1533192290790574 -1.7051866620686
1.029405159715454 1.941522796113546 -0.9143362382075803
1.61233986913851 1.429293883215782 -1.91388752548677
1.627491773262172 1.486065002066433 -1.858272051186354
1.685074337053578 1.472167450721604 -1.804735118042533
1.639541578370818 1.536079675243021 -1.801003767070879
1.582067876211405 1.552715526499801 -1.846408026646852
1.591424227443624 1.597633644931472 -1.791342229683438
1.694971623655756 1.520559509928509 -1.74601636962531
1.746791998069189 1.503254571097085 -1.684783334880395
1.787480453358944 1.436145908914476 -1.685489703339537
1.791872624552757 1.483226765006681 -1.623402785293719
1.748545417402165 1.548678342524313 -1.622332961918484
0.1982950895417781 1.01043952286485 -1.847628858832577
0.5630374437109572 0.167556798141779 -0.9092625056126369
0.5021571032143186 0.2093106318817456 -0.8936816405729325
1.139565288665243 1.860368666293627 -0.7598089267847554
0.6823992178461329 0.9105288224518885 -2.193993989156396
0.8893765101335682 0.7445774096429106 -2.210479954931412
0.8335734638491519 0.7042986632822155 -2.19067153009334
0.9547523891257529 0.6983693290626424 -2.202350561537112
0.9588665618763761 0.4069202767101946 -0.4459076656934119
0.9172602664834149 1.529072256273146 -0.4054665879080646
0.2659837897019003 1.199486553760264 -1.8991727950927
0.3097364056775773 1.254617976898843 -1.927278270870276
1.476852679941249 0.2101552919855483 -0.8643098927190198
1.188393328949002 1.788415942552009 -1.835583687560831
1.258295093410295 1.764427591963282 -1.840706442630673
1.313741014790075 1.782835090598211 -1.787341415272064
1.327276794130668 1.730532397373551 -1.849343237561921
1.296837289963447 1.826220815784372 -1.728797229369347
0.8595130436581963 1.699090976210622 -0.5489042703890608
0.7858991667370229 1.70450700781792 -0.5733681140150574
0.2681935224515449 1.343167710604677 -1.838808289527642
1.162376394504867 0.06858457195824508 -1.575728732096808
1.57315158537015 0.4089065396544215 -1.817543638255574
0.3366189871318844 0.5105304249061285 -0.6840095700248121
0.7510953515977148 1.602683432653196 -0.4918317099686271
1.780456698040749 1.619647740531232 -1.166789302743751
1.707443829860969 0.3298998760838059 -1.474697689171798
1.753182516104507 0.3660549976925537 -1.425584257505891
0.808957761249313 1.420460557551945 -0.3630299990663535
0.6342841680756588 1.36172919335748 -2.107556949101827
1.925346024732276 0.6590649595645928 -1.415825307825678
1.901948578171239 0.5926994902170206 -1.393509780382404
0.3041023363257618 0.4895336871436697 -1.755124326410439
0.4761259820557568 1.066320949128166 -2.099209953444785
0.4185450303528204 1.021163741751764 -2.06330327326752
0.4340454983263893 0.9441328071494163 -2.072541402482799
0.3751765180371825 0.969372742056016 -2.030165102692176
0.3388545891436452 1.034465902629494 -1.999465707860951
0.4978696904809341 0.9145802994531658 -2.110562970979333
1.400975995463302 1.840801156660116 -1.613691718384162
1.449733562303233 1.840192989240337 -1.553010666098459
1.419811365601144 0.4291213619652527 -1.955589114107987
0.686836398854593 0.0503067958042015 -1.246627045515008
0.3655594016140798 0.9913220928036431 -0.4770770924300362
0.341895095748456 1.061627145897889 -0.4996000866947369
1.389490616963435 0.0827959497125671 -1.16613230995329
1.284653921906403 1.80929908607135 -0.7361837546093148
0.7807897664864483 0.8209343146638571 -0.2908950245890538
0.8887951615480609 1.967777494067327 -1.024079204406406
0.989649361576753 1.981703093220685 -1.059863467357875
0.7673133948002038 0.05912958079993402 -1.49621088122763
0.6959214669750162 0.08455645319820582 -1.513627309610224
0.6370273349298631 0.08976553339986937 -1.449308956710575
1.328864316720395 1.525505817612926 -0.4653396296211987
0.03512039113513865 0.8253924211777349 -1.446263939160047
0.7336903274728626 0.6783859301705587 -2.158649298908128
0.427396479222938 0.184196463447303 -1.331177569203721
1.474738999850427 1.26996182850829 -2.087701315009996
0.4601205083185728 1.368839361649825 -2.006629142816712
0.4030171303248765 1.316331604645627 -1.987255565741471
1.58849654149675 1.694267167545239 -0.8356753438243443
1.74377512100996 0.4164364518110238 -0.9240365747638049
1.724909852756458 0.4379149647519467 -0.8517963855929918
0.04665458872474337 0.8628248761182252 -0.9810845631273064
0.8586084819317108 1.86604367573309 -0.7704410460213844
0.9161306566069727 1.897164386832032 -0.816338846287651
0.8509207245166223 0.2917010827600817 -0.5600086859545907
0.8639488120156276 0.2385493232750725 -0.6162153826707445
0.800738072085085 0.2171979814918573 -0.6604953911094429
0.7318610580764119 0.2436157925785312 -0.6533556850287643
0.6806845815335014 0.2241266810514353 -0.7058876435208408
0.100644554850092 1.433082115539326 -1.190002796071878
0.113456778240474 1.257953059289862 -1.634059025613565
1.195485706065136 1.492290902580203 -0.4018048538449511
0.3344697644541367 1.664919413595006 -0.9109547537588216
0.3827759196696428 1.680268442411039 -0.8546909045822448
1.539151163921785 1.812770935235505 -1.029275218250901
0.7924701601014394 1.636847712371789 -1.992533741185204
0.7350038633626854 1.665932309301154 -1.947360170210581
1.75540552160579 0.3472625614632008 -1.307413711427692
0.133518397309115 1.480581719969377 -1.385095679536804
0.1690751866663898 1.546502186059587 -1.354399785529462
0.2306862001218409 0.4887608932438097 -0.8668670556580127
0.191039606946133 0.5070224915018443 -0.9297559390323006
0.5748752167293538 0.6133607057435433 -2.06840025341269
0.5106655421339057 0.6411662070337627 -2.044852248767253
1.056054906631501 0.01818540895529241 -1.06862206238286
0.4764843857589371 1.742829690869072 -0.8327045986244734
1.539740169061436 1.694759340206349 -0.7746159351665524
1.708740341830873 1.537913413008904 -0.7935612987852919
1.560323548490103 0.1953304215716442 -1.053672746264329
1.61683420783039 0.2281747209762767 -1.095723304708043
0.3000582753044719 1.701056908611156 -1.113615276079689
1.642251078844832 1.75777598509959 -1.365278394025055
0.4323484212198119 1.744459433485896 -1.601499412520446
0.2773301693210588 1.640394797740442 -1.510082330913594
1.782599377545356 1.620533190528 -1.299767195206896
1.265987980852121 0.03934979745159417 -1.169990110699248
0.3842996408679252 0.3078891980333018 -0.873309536136567
0.3263277521719412 0.3574994523455112 -0.8848168284682706
0.2807367452762805 0.3846181489743077 -0.9275631103108168
0.6457372468342251 1.494026629867783 -0.4560002577450762
1.579233436109714 1.753331875073446 -1.561415658711729
1.531359844928736 1.760535150068089 -1.623152784671666
0.1449576336196372 1.246682852093415 -1.706125116802099
0.03991056596040155 1.013690441223542 -1.529357925365701
1.494392101265385 1.863996786097101 -1.154679468002547
0.645130715373053 1.880206824482184 -0.9348750454766412
1.497482368497085 1.557077764332001 -1.914962899357092
1.49627883456077 1.49822140948582 -1.960973097590173
1.419991894135071 1.454472819069711 -2.035532472650027
1.376341942153349 1.523377620657306 -2.014488462157109
0.3460265054405159 0.2640100476333648 -1.074964408107909
0.5270697252130253 0.7742798966380329 -0.3983032287673156
0.5625328274018526 0.8372306347730515 -0.3656196482041231
0.5250762020345471 0.9069906110775431 -0.3749019256687049
1.906694253947795 1.282533191092927 -0.9368218944611568
0.3678505950679759 0.2923997299255622 -1.565735629339912
0.2799236166934661 0.3523008723556396 -1.498949477309988
0.4394144897962611 1.819735490328802 -1.132621928602435
1.112521456448559 1.580736873723089 -2.056277622991627
1.562350780629905 1.465377705384356 -0.5664905334553677
0.7829908446146507 0.03931228588076552 -1.423165072746491
0.6179164102793049 1.9100231732721 -1.089158604290047
0.6756792903350468 1.93650001013834 -1.116644054150892
0.8828358261606013 1.976241934764139 -1.432275179814757
0.9735979312630662 1.529412209567785 -2.097953797754905
1.096982718491256 1.382140221445874 -2.169001198838905
1.804232448258686 1.356462970963559 -0.7744536620899356
0.5290677329959581 0.5721331789254855 -2.02146145938603
0.1449992824343881 0.4978392213201221 -1.120353074398551
0.1697216582592789 0.480009827577663 -1.049380719220543
0.2152206174293868 0.4174267161580282 -1.038506052933734
0.2363261953672016 0.3727775417497968 -1.097048020659299
1.633930626233317 0.343004937666591 -0.8419688134554479
0.06855955991753593 0.6496973463713289 -1.348522877747745
0.1212331467982146 0.553822777956114 -1.419395112807403
0.1409859036008287 0.5008537823129227 -1.363788556349925
0.8920797773914713 0.005840457941764132 -1.250174604365613
1.179377741980781 1.661084892463066 -1.978553629212684
0.5099505639721185 0.1381724093727388 -1.119214854504171
1.605376326634553 1.250325175854504 -2.005550666390988
1.516675866273978 1.84942704818355 -1.357330047163947
1.156017713618824 1.987457390032072 -1.225784800058569
1.207364504544026 1.977698279118977 -1.283257138526947
1.869791108060993 1.491183507400695 -1.296927501484549
1.233868097994383 1.930808300639448 -1.530894322123451
1.183450177921163 1.92350366275062 -1.586878341700504
0.9869360773699766 0.0169148671213607 -1.432682663212754
1.328835194557991 1.930658769040989 -1.410442109270353
1.303719053599474 1.94845738372877 -1.340461747335635
1.348944430594722 1.936820145877006 -1.27461297698187
1.827351050085358 1.471699162165254 -0.9450571523461275
1.745261799260444 1.279999375660042 -1.855132382370231
1.827018002341922 1.504726664456447 -1.497572651940894
1.930738874435179 1.353332731880055 -1.155760262111393
0.5058493459863416 0.5901710345215114 -0.4832827442970222
1.889603372958415 1.271428575229665 -1.617331413535251
0.6467241768129476 0.5755976751654108 -0.4162861045739333
1.924756719270843 1.338275713168465 -1.424340333955727
0.005687251515070324 1.103068342092165 -1.223184425072035
1.239483595243426 1.436327855107678 -2.117332468241802
0.2191016661892036 1.613860594345231 -1.365641527842043
0.387489891910787 0.209771499415598 -1.269242774037764
0.171927153476625 0.4431874877815706 -1.315231795067103
1.445907473312543 1.825957907693859 -0.9050941288380179
1.443859983818064 1.568399871325397 -0.5572447033459069
0.2732171798705175 0.3142688130839383 -1.289490146306712
0.1822694921995969 1.574915347233354 -1.22190800597951
0.03530249210717851 1.243327930637439 -1.149251618191252
0.02733174658385673 0.7817007050306429 -1.170867916669211
0.05144743058090318 1.302906775173421 -1.342171083331314
1.426411581312504 1.762187134147067 -1.737076930128343
1.026471196654005 0.215768283312662 -1.869903129762494
1.697688065613876 0.5582506848789972 -1.813993710683101
0.2642711227002871 0.4021723967924102 -1.568284740366818
1.355007492304065 1.775217333756431 -0.7274985494263686
1.287505757617875 1.950556435562925 -1.132599394607699
1.236066296721039 1.970397252812905 -1.198991419490628
0.005892305774389039 0.9864025909391713 -1.142459297248569
1.871993815028104 0.5125134552860433 -1.294538245088692
1.803989413175187 0.4188786528979319 -1.123908749532346
1.250802363108113 0.06049631034108405 -1.016695495592842
0.6444641290887837 1.850749849323334 -0.8629354855173014
1.565631752336334 0.176381884667984 -1.208600472878715
1.947208565057302 0.7662001237937572 -1.03060639898112
1.348696399300316 0.1417088869032251 -1.626493275230905
1.401088997294881 0.181337005036731 -1.660996979218531
1.365493212684346 0.4468751169652576 -0.5013561759758666
1.424747492727898 0.1652401075240211 -0.8996209347936769
0.532780771829426 0.7614510904376892 -2.101352224742689
1.080164412237008 1.892317400134848 -1.694233412101431
1.307375790690587 1.895219404489807 -0.9273510559102177
1.430308050801415 1.859321568512474 -0.9735919261223551
1.234806929391362 1.919782078773777 -0.9355693502910537
0.7084658490721762 0.6959344772200762 -0.3430534763838804
1.714867437342201 1.354694955320104 -0.6473757093360212
1.385320473710004 0.09148502504741041 -1.088356339973404
1.349931129295111 0.423680366393191 -1.98851464756602
0.04522279968495069 1.067637849660863 -0.9604734570858644
0.04775315877321973 1.14302739447448 -0.9802424833235213
0.8030022285325773 0.03706577479148054 -1.065745947238772
0.3882152062643196 1.776152002544387 -1.402667727762383
0.08887051484278474 0.6629701648877047 -1.01282084509526
1.026534351753293 1.811577788134983 -0.6663584816148181
0.7659226925944354 1.749902900370407 -0.6312484713765851
1.986012006683639 1.161991265260793 -1.210767963920922
1.734643803548922 1.631068345950859 -1.499100832286888
0.06043751637342631 1.224267448749723 -0.991298529589113
0.1994315374212009 1.552538537089713 -1.018070481061642
1.337548365470579 0.5714306878659815 -0.4119132230698813
0.1432260309255218 1.173524188931241 -1.735620965128278
0.7101770673683834 1.792460434675835 -1.786664818293688
1.089367256014456 0.06882570693751067 -1.603451452807907
1.648673160367077 1.760817712109884 -1.23051821467958
0.9296875684662096 1.863406502945306 -1.749585200585009
0.2046244932879652 1.439735889121971 -1.667145239863388
0.2315878346479165 0.774172931952757 -0.6512138282524318
0.2668734117809221 0.792643429052704 -1.897710319611501
1.645518512848044 0.6954369621083866 -1.950390752023955
1.580832824991921 0.6600259169447794 -1.989628861161236
1.895587284199295 0.7486235496667473 -0.882939655372055
1.890363501769352 0.808634109968172 -0.8369238195570408
0.8938906531601047 1.773918870885247 -1.874331953211523
0.5688104730574308 1.722870489584444 -1.789938743880257
1.119098583855392 0.6118042058555819 -0.336151241871925
1.111286701167144 0.6784380651653608 -0.3096738904992917
1.028234552572939 1.275162938947338 -2.210982917158713
1.78260612148426 0.7418871580585094 -1.816485144942257
1.85517066682961 0.5656842877334998 -0.9670636243381862
0.944177048757659 1.093054775277747 -2.244094868165309
0.3053526374101635 0.6387414207882334 -1.872058904439829
0.8871065511246417 1.409282492815228 -0.3446034513673141
1.11081724717882 1.985660956711327 -1.377247853194541
0.4126832322016682 0.8269986458184189 -2.040651342700599
1.04746771902449 0.6086782594988173 -2.169028895662012
1.191868311769743 1.96621021827011 -1.077882699739235
0.1406145463798973 0.9364889565276581 -0.7426313081562633
0.7832391329704212 1.294011875291897 -0.3191016469496109
0.9714971855381334 0.03390208763032798 -1.506597765545053
0.1883535344448548 1.128478225307899 -0.6801549679311285
0.473196221962123 1.454938647620264 -0.5320107198944652
1.57387255493455 0.5737097657017873 -1.94924740030612
0.2739980007170031 1.385454060345836 -0.6804859401208778
0.2827218011428194 1.450917543263104 -0.7187887853012086
0.2135199863540723 0.7174997357845001 -0.7007798357182483
0.1045002229052129 0.8226896836176286 -0.8417828997609605
0.183828585885941 1.201886507317979 -0.7086072950750034
1.130477311748367 0.4309448365760336 -2.06188169834
1.326538699170868 0.479552363067106 -2.038990960122335
1.787269257219561 0.5497572038951437 -0.8287061106630658
1.201317871601601 0.6035438667784805 -2.145708462059415
1.503362052368589 1.387558553183731 -0.477714423228418
1.456932466339563 0.6211951425349507 -0.4451897110711571
1.306215652307803 1.45523794199156 -0.413943548285766
1.41812985589576 0.6022646607411621 -2.066684776099841
1.034665345984762 0.5959662841893164 -0.3359129853914516
1.697712608853857 0.5411867245762334 -0.6998295775477748
1.600939578525675 0.8016239095300128 -0.4757141679642929
0.8500636814320308 0.6852227973427202 -0.3127516801500564
1.364467062094346 1.267215475687061 -0.3579463860273565
1.584408153220284 0.6080425290114634 -0.5394815615440174
1.729319454935716 0.7298226402763169 -0.621432321110121
1.421219581868918 0.5004342048571688 -0.4930270281090056
1.61743316585065 1.781780934880206 -1.162851531479459
1.779293254966988 0.4870323145327538 -0.8900469802469598
1.504458976784338 0.7295903297737454 -2.069999848164515
1.56623491764018 0.731405892095531 -2.029252990526198
1.137997649771223 1.251089937703971 -0.2919235459309969
1.301612898434983 1.136711852425274 -0.3064219539942131
0.7119334514381583 1.857830697190738 -0.8243896634750041
0.3102006716284462 1.325274109524397 -1.896818088995093
0.7444456086927613 0.4975792947072806 -2.075993576232136
1.663564724962475 1.537247064460019 -0.7293778265242947
1.549648930114194 1.643469639409953 -0.7172403198608709
1.248648104689394 0.662674762294889 -2.157956939530484
0.1073299472670722 0.5648344220349126 -1.132649683817625
0.9316012556180506 0.01412781196032353 -1.097102515989198
0.2348830324209722 0.4437019117199898 -0.9257648031155792
1.986258468009045 1.141474381852489 -1.335318424504374
1.083734233784986 1.72639102181191 -1.932161756127893
0.6421969668409794 1.696128010268414 -0.62759917835695
0.4744574289272535 1.741392198525365 -1.667303982674468
0.5400299054133757 0.1361807198012056 -1.044467123693535
0.3171222438322855 0.9491525451837817 -0.5212390608230569
1.080631402411158 0.2461542961812574 -1.902085294865046
0.8183987813526352 0.7504361288292505 -0.298822376423803
0.9839211571802248 0.004551433331957733 -1.156065863861334
1.778191984865233 0.7310857742425859 -0.6824593636779827
1.591914639562654 1.130329697081375 -2.045393757537794
0.1524600612056896 0.5728295041088874 -0.9350374314483108
1.978624840281787 0.8652825619311688 -1.094614563540796
1.635078639499979 0.4281238034675114 -1.769261723498266
1.61608586502423 0.9330973295853753 -2.034832618848592
0.3328875050571533 1.621387441959909 -0.8391002968294445
0.1206510899675548 0.5929598971148295 -1.002888994441809
0.5865347047260807 0.08951424046134437 -1.242117660159069
1.840021541128894 0.8579112596375376 -1.773616844936875
1.92837715962253 0.6397615881483634 -1.341346243041595
1.183557091856662 1.977199885438287 -1.356710720775959
1.246621965913223 1.956996950397795 -1.402756154895364
0.5588268828398323 1.896557781347704 -1.289375441585625
0.963133180995094 0.0009420943998357245 -1.227105919667462
0.5101548607250936 0.367707494032684 -1.850214900203518
0.8303741064014677 1.977632042446417 -1.374348887421424
0.05786539314309869 0.9162201922270301 -0.9254028244545002
1.82865108306424 1.557614760470986 -1.29902205056244
0.03674418736501273 0.7321611672210454 -1.229985028590641
1.945469539970884 1.308183355130253 -1.355405733278156
1.555470490332631 1.830410986887344 -1.293244967642647
1.935371829606982 1.315931205231549 -1.091043987409636
1.840651527416758 0.4812737253280363 -1.094346341460221
1.800897193887212 1.293625336162768 -0.7281304312504022
0.3572651996809795 0.4793348151992171 -1.811960622993494
0.1376612548641694 0.5982305275037737 -1.558144738082066
1.31945774870862 0.07343452904133974 -1.051447299647735
0.7575245936814587 1.360893900363269 -0.3494661194539955
0.1040605658630083 0.95331264416099 -0.8082842303437102
0.08661096366128607 0.8969945167553247 -0.8561595009172285
1.69769435231313 0.4854128562466733 -0.7515798336401756
1.382312606339215 0.08831626348727273 -1.400565054419371
1.668945248913268 0.2648874729194712 -1.139900833401678
0.006201566199385722 1.062048755820227 -1.157725274984924
1.611209733127365 0.2430719238010874 -1.018737055298113
0.03480304494449316 1.166081492730242 -1.047980754075082
0.6444011216436489 0.2328389012587453 -1.783866356207072
1.472477631474788 0.2074927162601523 -1.635612620352684
0.1099207991840416 1.187199336984245 -1.665590452858922
1.175002263160114 0.665156713621852 -2.17588021982129
0.4925788042376607 0.841927923833096 -0.4029244727727036
1.395792690792763 0.4815449163597322 -2.00799239584747
0.9821474052841308 1.594996120922001 -2.053530273822762
0.1296988568507744 0.5449339301029172 -1.06160999957117
1.205708122083966 1.741265263345539 -1.888913122314729
0.6203912737411863 0.5174880905342139 -0.4606461679501125
0.3661714671364793 0.2318233151553866 -1.340365766688588
1.617554378532343 1.785102580164594 -1.29733421779674
1.666659412799419 0.2785188370452097 -1.062836545160819
1.085866654347331 0.1075442077497891 -0.8071122302995436
1.471773286154467 0.5562806875112254 -0.4880661851607422
0.7725454629595709 0.4345952986045959 -2.042831607101848
1.655517642284651 1.592644538068845 -0.7819518484699063
1.598790049101153 1.645455167942348 -0.7758290358172975
1.102760378348762 0.04543110396015249 -1.529711507369443
0.853747775388324 1.987905206541089 -1.30151300500984
0.1893740131233836 0.8785606194603361 -1.822833297089524
0.8544959951738276 0.1397383110769649 -1.738649579096137
0.2604960903371335 0.7070738993233505 -0.6439238767813829
1.388499488934029 0.08147769188465104 -1.323381990927269
0.9228018900545181 0.26659490751349 -0.5746057283810447
0.8405425597627085 1.748309649918909 -0.606100945340646
1.409781798181371 0.1893996143912126 -0.8316629436326165
0.7462619483179681 1.019099019439795 -0.282915604207655
1.82254223104518 0.7336388971603167 -0.7475300595645098
0.5766505008056688 0.1359747039546623 -0.9775380956433073
0.198242945787263 1.570934241618415 -1.426691023449749
1.335312461573054 1.141981246438874 -2.181346809074623
0.7123429138180433 0.06181792393020535 -1.442529979251742
1.225344931994588 1.793045414244186 -0.6840506802101257
1.166444664704184 1.773735040480372 -0.6387469748750936
0.9969103065472343 0.1967510631066699 -0.6543645417085188
1.155777775499348 1.818132901354335 -0.696473270399692
0.3209835359753154 0.304036087330162 -1.016395903621738
0.3525421753646202 0.3019504520156266 -0.9441811093519012
0.2668115796716606 0.3564820090741233 -1.030183404513769
0.2241761964622175 1.580618981258848 -1.496939313326383
0.3879091894997168 1.775047441100053 -1.09300858703303
1.758357050328962 1.293039001719681 -0.6677434176520719
0.7012064356775424 1.218478654323382 -2.178972272742586
0.6861035173785153 1.947952228763038 -1.196562464680252
1.326040232172214 0.06247767745838251 -1.128551814582267
1.806679006389671 1.590737969876474 -1.232747997322207
1.831391580074771 1.460420451996224 -1.561128667860048
1.406485178158772 0.5625190234880004 -0.44789016018544
0.6121323702973399 0.2461969735860289 -0.7195853516370629
1.968315116011803 1.229842952569097 -1.347662957447374
0.03112268077074398 0.758022159565311 -1.302186828047836
0.5406688123256547 1.781092300739167 -1.67297715985106
0.1074919818238562 0.7211560004882244 -1.604507350315292
1.467446861227961 1.803816394804255 -1.617930204484515
0.1461288948029109 1.213911275915587 -0.7755043712048897
1.673068319696496 0.401411588384282 -0.8156373053538009
1.283591619975104 1.925556239170623 -0.9991585337065895
1.64140450572895 0.8654728639025016 -0.4946837022253483
1.075082721573895 0.003182748772670996 -1.223205362912531
1.014168803886152 0.1170886036941466 -0.7806741949672018
0.1132385499880975 1.225070396625598 -0.8462705765793332
1.556825098645542 1.507806060968903 -1.907327022083855
0.587582078843367 1.770766272204878 -1.735624146784566
0.2090945556419915 0.4002736671471385 -1.371642524504056
0.8391540274670064 1.897418622425855 -0.8391856998068403
0.9878908690684201 1.13845316755081 -0.2597050493195326
1.930861100724222 1.280295674757993 -1.01562434881061
0.6948792815130602 1.916475164561795 -0.9912054484896482
1.405529376277213 1.201670251902602 -0.3584423549350523
0.08146890444039712 1.127730798401898 -1.62414632114948
0.3492312267626049 1.531713020437179 -1.79201592935694
0.895533591904087 0.8784357471068708 -0.2629291302048907
0.821978498179456 0.8693152166346031 -0.2746898789173274
1.043892057274566 0.02852664104010716 -1.483051496754235
0.3095325106169201 0.2835410629081524 -1.349705754930427
0.9282787462380647 1.996860021533617 -1.28355829594621
0.7134434633724732 1.703000391360635 -0.5990961660407659
0.7352403267209129 1.657298692588671 -0.5444075226262861
1.790653769106856 1.527368781525009 -1.56104466828729
0.2345464286772475 0.8656291852617488 -1.879305422109028
1.443272223266158 0.5455046159732047 -2.022621305672458
0.4282069601063168 0.8522943222547057 -0.4430082080399182
1.277331640605575 1.96054545345779 -1.270966472297196
1.067891144103004 0.2283687487155042 -0.6175634382853025
1.618271699382158 0.2177910781515561 -1.173258170963984
0.4905028774744111 0.7168842356954692 -2.062562702897694
0.4219393221174785 1.552047518212153 -0.6490928604835833
0.7815743971777516 0.1633496301635972 -1.752301119533241
0.001332812953084073 1.036004572494346 -1.286979998313947
0.7051589617499068 0.9614375447205357 -0.295232122866282
0.7809537681336748 0.944613541186112 -0.2758587943808035
1.855185873587944 0.80134553907131 -0.7712583924821688
0.07304130818591315 0.9712006386871236 -0.8759436132636054
0.6617491729813358 1.806618234602096 -1.734719920808488
0.1603542324941681 1.485779254468512 -1.007073054113878
1.178359215599491 1.723980064862175 -0.5836360934947815
1.303337598164256 1.517782493794315 -2.049929741077352
1.824803809956272 1.559041935488017 -1.165319486022874
1.589170253495342 1.807716581607562 -1.228266703139447
0.4552314940632639 1.792760855538345 -0.9765818205283934
1.916156996709446 0.868868081249682 -0.8712378354888277
1.793996734262712 1.231338508954274 -0.6878152614531753
1.108752278398654 1.062164060124949 -0.2578767356966759
0.03742006489271699 1.083120382920861 -1.507935787497486
0.1057264191001934 0.6666308879856362 -1.548562887277357
1.578572753591852 0.869476517918531 -0.4448806365348857
1.516845043929336 0.8753676502393719 -0.4030419266818298
1.416067082628229 1.803205503556322 -1.676320421525956
1.645364633753299 1.644192600673255 -0.839487658238758
1.833535287928962 1.214900648486652 -1.758956417640251
0.1578001176081218 0.5255476351332686 -0.9938861355344611
1.045578178778581 0.7097227657323972 -0.2941434433529375
1.70072381829732 1.605751121414403 -1.626897478601301
0.7195828291470159 1.605334308669454 -1.994940658736306
0.7718338033552218 1.912732000258327 -1.588910729268181
0.05966926149809082 1.297008759045993 -1.416023791302371
0.9506098758298137 1.997958847012671 -1.209518457247843
1.607051161262455 0.8041699883151496 -2.020155499969595
1.32974653987189 0.05690036537976184 -1.207218010545453
0.5512638940412244 1.861093861660936 -1.489067498039384
1.671013642915082 0.4927205693781394 -1.7907478805227
1.902035462482554 0.5742273086974936 -1.321060817367272
1.066880787627316 0.5374566268043475 -0.3659295343926835
0.6456828875024068 1.499579944203546 -2.040493050659491
1.098296094138351 1.795251719562251 -0.6517420452593816
1.965601139843735 1.127249557787021 -1.023235830044761
1.744968794877275 1.589917693178266 -1.561478105064117
0.8963546213005216 0.4657766018528103 -2.08896543215219
1.449977210455902 1.130097177411991 -0.3664869924558226
1.510335850855101 1.13643609620599 -0.4009166642878509
0.561109765932597 0.1478095910464116 -1.534862895666979
1.030882380080159 1.059093430978465 -0.2522253535914144
1.900734747645154 0.5888904775306807 -1.109764929779782
0.08713715534231392 1.352810541858582 -1.45544135026068
1.506286490784811 1.458855724468579 -0.5198456236033255
1.536326148746776 0.5512097843496213 -0.5351982061389757
0.205205875941914 1.479639182122766 -0.8781820938478845
0.4774026468089985 0.3441347230604908 -0.7052681898926586
1.052925967897494 1.618609561047624 -2.033913932075824
0.9371851633437422 1.468227423909628 -0.3686275612462111
1.974872526388646 0.7865499939545721 -1.186261062043481
0.3674753078176836 1.286383094008981 -0.5303492254950957
1.05793770170431 0.01417397934328635 -1.407449292527376
0.2559163588356793 0.3412552868416836 -1.361332555156226
0.08656235703829895 1.168707043155918 -0.8796358467532808
1.50520065888618 1.204022923685256 -2.088538574468635
0.9418477310318528 0.1314906969471773 -0.7577501608689379
0.7065499808492361 1.461273460734195 -2.087325432960635
0.6946385928590226 1.397973654602848 -2.11508460931341
0.7135557455132129 0.1920423021596029 -1.764931109539863
0.8685245445529812 0.4986402333001191 -0.3948084489720213
1.108292666747243 1.935924801368698 -1.585137978318981
0.1320544446310564 1.485310313306387 -1.144432899472646
1.133773370252018 0.2141210254102877 -0.6462625382591876
0.4681918970651026 0.7918784334661041 -2.070893144810129
1.483664094804781 0.6070653489345578 -2.032094242012273
1.617127571933077 0.2131421034118678 -1.252865403441934
1.881185741470037 0.8689547086741205 -0.7957546690925523
0.05797962324734263 1.069825909837634 -1.578210225462474
0.5366968207576006 1.24066381718233 -0.3971042905471297
0.583414909394994 0.1199239851399009 -1.477866343178596
0.7779400049047361 0.6932754891641734 -0.3244680270078109
1.33054604468839 0.0568434321433573 -1.284568784325441
1.25237516064912 0.1978126547959949 -1.79111204152364
1.448039975479194 1.511944936009999 -0.517079429360643
1.557031586829405 1.82558287596283 -1.159840551292409
1.617098388967898 0.3742845276525992 -0.7728525112731981
0.4293799736513816 1.687438351221096 -0.8007547453780701
1.363335327237286 1.796701972368936 -1.732963153050852
0.5919293031443555 0.09552491640710425 -1.125890654955507
1.193561163681657 0.1578021530612 -1.753226452529925
1.797021651147938 1.585584702657906 -1.102192545470581
0.8446909812302693 0.4204890881106695 -2.050028881784889
1.299891824832432 0.2371970824133299 -1.822884458089009
0.6819956301531738 1.849607742034174 -1.670761102567615
0.6827624222069921 0.4685723050399833 -0.4645415833632511
0.5150483274131967 0.4656219192653228 -0.5577125293018912
1.807484108247176 1.550383516975774 -1.037756274133625
0.0217132771967079 1.098214279779781 -1.432507652535814
0.06572948887692864 1.045443632293874 -0.8963426964846137
0.3115141093417217 0.8981993269996975 -1.968069496177886
0.1095520528974772 0.6165678236788795 -1.495116747005487
0.3301133531915077 1.742386149926226 -1.260709100120432
1.710735286591345 0.3132851600112618 -1.402571560040396
0.90211798592854 1.990573127779545 -1.154166864590768
1.963172774617115 0.8644360359396249 -1.482208134837276
1.887128928517322 1.407899058886383 -1.034081909170834
1.743202396622828 0.4936534230974886 -0.8126633542530494
1.305861998073374 1.692632146614936 -1.903229781631357
1.686205133440088 1.638305453073308 -0.901160977788679
1.073595999864573 0.006513065582355204 -1.336990458932943
0.6829677408693089 1.605859276601458 -0.5203253576925886
0.1999878113976639 0.4611875570656602 -0.9860650659218657
1.112456925342675 1.749681442663505 -0.5978258097191843
1.017450088631913 1.910510949019856 -1.663116576914677
0.8687016675034978 0.1936512203030392 -0.673317770895565
1.863368346407796 0.5656282289812062 -1.506741626860671
1.058503587547744 1.716384824708409 -0.5547517614754097
0.4807754815208328 1.178907509050191 -0.414297898401869
1.714867603571943 1.664915425769312 -1.033547266274315
1.784010323174415 0.4554142628039535 -1.547916411093091
0.333715959161576 1.598713844594719 -1.694530436769668
1.616136475331674 1.061588446530274 -0.464772194188305
1.526163479454953 0.6691860333208666 -2.033399076038436
1.139590176330687 0.879318921283613 -2.232827889262315
1.76675617162368 1.213507135330017 -1.855392167475074
1.908756526248757 1.066192426933617 -1.662043855210741
0.9977442160100105 1.516479380901775 -0.3937033454801367
0.2392898685712704 0.7366133920326164 -1.843251709382384
0.9658259894400778 1.205530237722916 -0.271946086156897
0.2860432175942138 1.506643217424709 -0.7667005451127467
0.9345259567954494 0.1720100184482157 -0.69309270060779
1.699786339297648 1.56522439563702 -1.686830014890417
1.921796500991928 0.8104490131810513 -0.9118260297494764
1.881683301546818 0.723799565961869 -1.632554409216063
1.197363951529616 0.02525646782142243 -1.354510846865987
0.3946299449757052 0.4948354845396065 -0.6349098368535323
0.6386333848654278 0.1052758130074366 -0.9875446729885666
1.232133956133744 0.717536112601149 -0.3192325861284001
1.544219636670612 0.4947656932460536 -0.5802513289740946
0.02441206147861796 1.177082569681283 -1.120115675592959
1.921997631107646 1.126178214005769 -1.616059321069964
1.613916982550194 0.214527651220646 -1.328352586680402
1.486566785762867 1.44593815803186 -2.001260222694869
0.4547801779682037 0.3719124151021189 -1.805194858910602
0.408076897972444 0.256286956910361 -0.9393266171291397
0.4094056503158207 0.4707438247513958 -1.859168461989243
0.6305290321488737 1.292092918836411 -2.132141105878633
0.6270081399143029 1.137762788331044 -2.167550263724592
0.4514753613589543 0.8737337388170466 -2.076545553548375
1.195786137604589 1.170740125819351 -2.215668471970101
1.64365405564848 1.58122173440623 -1.747886284307046
0.1612422062883913 1.543593208714727 -1.281492648781282
0.4197591498473688 1.809408274332035 -1.340436725156257
1.264690297795467 0.03826417713805419 -1.320733678520227
1.477306739599907 0.8081612441055493 -0.3924592324155219
1.568709150379231 1.194439917871272 -2.049226513957805
1.093594630297073 0.4888588823684464 -0.395614370997545
1.992317438581072 1.058735149110566 -1.141113438171373
0.7201103186143569 1.919118231385105 -1.527278637816473
0.9649340715778917 0.6253140600311851 -2.176488438704759
0.1190302972430108 1.407403640786762 -1.49065464113113
0.7573922239191806 0.802271884022369 -2.199760527257822
0.003887166585466173 0.985720809771551 -1.336921388813622
0.6673486249671131 0.065436894695582 -1.3762333747172
1.979970716840349 1.120739774775334 -1.408364455995068
1.158605937490058 1.713738950522734 -1.932217609784156
1.255267249980206 1.949144337979714 -1.065707686626401
1.376651866088442 1.751119799421839 -1.792173790115855
0.0210136821800031 0.8463462949698252 -1.384075830975401
0.511440168857894 0.2758371293277905 -1.736721098920297
0.1569278480393443 0.4943342665132112 -1.433116117711405
0.9266330347378311 1.982684805692045 -1.079859290379385
1.819853636433905 0.5129857065870413 -0.9489068369464709
1.929575113887758 1.21670936942479 -0.951793432593995
1.519985537057964 1.839411774645837 -1.091876902900092
0.9747423269264303 1.838819896809424 -1.793822793442438
0.798964846630436 0.177308943016202 -0.7182441426100157
0.9289457749117516 0.2176242845591321 -0.6312597176637854
1.445652812418894 0.3421396771327511 -0.6428646226910107
0.4155687718953364 1.57950395732119 -1.817992344195901
1.120799929846373 1.637172514777682 -2.011195483014052
1.675467349707315 1.680358673468739 -0.9656482197783277
1.841556328302185 0.6760966375661948 -1.682284117333288
0.0464566424517292 1.223838304548941 -1.451622118559016
0.7739095212812027 0.07283796406413823 -0.9512464986783032
0.6714408885413652 1.923769286711041 -1.05327883894485
1.645263351418636 0.5312942895471287 -1.853282822816015
1.569582757251988 1.128593800096955 -0.438187757410713
1.709137883481735 0.8753497001014664 -1.943963806654389
1.414453348363436 0.8128135122854252 -0.3593880526023594
1.211992428890515 1.388474643121367 -0.3532577506636442
1.216631501187339 1.951129137600963 -1.470054893832807
1.270295775427087 0.2498564018113512 -0.6464896223900898
0.3483620530472633 1.303878785498665 -1.945000481881185
1.454305737881488 0.279883995873748 -0.7255581661144902
1.014968373446899 0.8661377627563106 -2.240886900325394
0.7365708414814326 0.6328997623510615 -0.3578999529423327
1.220659278759751 0.7133282908294505 -2.182270783548676
0.1422999894085913 1.470591066267192 -1.457110454060158
0.2477699273992259 1.455212593558695 -0.7736268137892305
0.7609765165219678 1.889550797121251 -0.860683735650597
0.03904329475486845 1.153764333313268 -1.480040736490621
0.4195665320701377 1.389476414614801 -1.965125941191978
0.245957574481797 0.4014248517489464 -0.9795784542332946
0.6745933420397781 1.945301745590532 -1.272696183349912
0.06422839781796563 1.117413935867283 -0.9175162015769458
1.526537383547715 0.2506608695828034 -1.651558527928777
0.4238834571999228 0.392475556670288 -0.7031876191333902
1.822082219474616 1.176514551747447 -0.7086836068941871
0.4761854019110999 1.223945670018241 -2.071867753175074
0.7512176103421264 1.878455441071219 -1.65795019383313
1.061252292283662 1.499350738761911 -0.3857679730605149
1.20135032534803 0.2073834841896067 -0.6744853560969667
0.01438636760627909 1.118550857415592 -1.370463529110196
1.479095304757328 1.849728902473031 -1.029935279380221
1.582436547018027 1.217394434475079 -0.46673291365143
1.348386967940713 0.277931537779225 -1.847698633456027
0.0471390088077841 0.7122707352168509 -1.34626942220423
1.819553947481209 0.7840519763553806 -1.780752087374087
1.550037408347484 0.4337671799774961 -0.6361276655950799
1.153026032432585 0.7248896619977055 -0.3008438825344879
1.663525355419353 0.2611316896415585 -1.367506266486872
1.537649626611798 0.6095245815442363 -1.99730303531164
1.104559234441166 0.1602071949077655 -1.782743288093237
1.763926215587247 1.609433134697252 -1.037849130400963
1.993187778778863 0.8834752153590304 -1.25010319246258
1.123653781005207 1.708322513968137 -0.5550259295132126
0.6333062168217103 1.549722740919393 -0.4994398242016413
1.946594649983449 0.8150551795615932 -0.9858902084062057
1.421275980942923 0.2873338220529268 -1.810921979147625
0.3962576366166501 0.8976630408714997 -2.040583522123133
1.89493772220633 1.098122991657908 -0.8147318620892996
1.803265616964271 0.8819324848618075 -1.833801687623547
0.1735816282117552 0.4513875816069045 -1.376716570170382
1.288496397149892 1.459917258316795 -2.089789226135876
0.8657207798430437 0.02799079763226342 -1.057212029559735
1.236488440905513 1.447246228551793 -0.3874201321823719
1.243781395671566 1.966171005631656 -1.334167802639357
0.8280036156150016 0.4597844446990174 -0.4262376571065299
1.310677841942256 0.8816613842892179 -2.193119955550596
0.6914613465257538 0.05123813383475972 -1.318226245851211
1.991667752044695 1.12794900669798 -1.264970679330621
1.07825931475777 1.22232374012551 -2.221826956937422
0.7532304940269419 0.2458808049473797 -1.858612397651413
0.6003146796047529 0.2150605584429023 -1.723414953025969
1.016421978401262 1.753266282657167 -1.907510628079304
0.9494221582918952 1.970613750961506 -1.014732432382646
1.462576945724331 1.123881353442363 -2.127881529338462
1.541674210248478 1.617189948266645 -1.820671199299827
0.6085234181521277 1.885577478740119 -1.499997230010656
1.89914988784425 0.562454161654127 -1.259116936759664
1.088271569546797 0.2012990420167603 -1.845218371462441
1.607400927655061 1.628331261986682 -1.736069890338822
0.803464015306534 0.6546443196500714 -2.16766173548351
0.3260223210344467 0.5816954766338392 -1.858913305806019
0.3438411176142291 1.745127526836332 -1.13066647655823
1.390669515853139 1.706549768188956 -1.840054874105117
0.9973426755749681 1.264509323164287 -0.2856205328885982
0.4099853187067302 1.143583168081206 -2.044522844040475
1.439354746412828 0.2500269441060373 -1.744477322268262
1.21299394197245 1.119543053383075 -2.219712864239145
0.8624809480585467 0.3643527413802646 -2.009632195843712
0.425148325316845 1.728672992344936 -0.8777350105891664
0.747871465839402 0.2049248509824635 -0.6983781098644014
1.128954957287132 1.631810511087444 -0.4856793231434228
1.134222534665531 0.2808060016062981 -1.9317215735639
1.806214347423779 0.5117587690092125 -1.584124118208564
0.4824515266531832 1.514442883837569 -1.933733937292325
1.332135055667754 0.2054020774083778 -0.7417673306352133
1.139179471840459 0.01204911134068032 -1.31769133043065
1.811689656969229 1.519648753593712 -0.9833071548434855
1.445343244149041 1.495875878649536 -1.99550419708031
0.3036285075296328 0.3417489000992419 -0.9640415520498907
1.940539832680571 1.059313139407718 -0.9155350920727181
1.39879868377184 1.501925648676316 -0.4825169363284249
0.2788489128460466 1.549565401337368 -1.671804432349364
1.876936412637683 0.5582837880580458 -1.439391964712872
0.7040970813125949 0.5845348546705937 -0.3898661873122937
0.1745896242653986 1.462577584275249 -0.9263957816162784
0.4585786523001427 0.2199643976742537 -0.9363004887488979
0.2126783655041852 1.486927334835381 -1.628188331978859
0.9670939198519343 1.943920580126767 -0.9214712671585072
1.86784695567405 0.5327342294832911 -1.081167653482189
1.439057933826493 0.2192732562647752 -1.694627802055386
0.4294187524768607 1.087671358967706 -2.066548083576034
0.5195184967413329 1.425289609083898 -0.4830148153767527
1.542759665982353 0.3834381457055711 -0.6796812954042804
1.002720922792199 0.01154617086263343 -1.098502065219236
1.748945039657113 0.348031641838861 -1.368400116257013
0.2757074447342285 0.8603411911404086 -1.925200497255815
0.2656427013440842 0.6748063717757443 -1.845792297762509
0.7725044913589068 0.7262357922002063 -2.184504655994759
1.913913670298397 1.349604562737603 -1.043751477690717
0.3235284159854209 0.7544141425827254 -0.5556846662665239
0.01119935184400278 1.120811456721237 -1.162376543487646
1.075691240630556 1.102715156088975 -2.241826815931806
1.946013391818423 1.114379733014248 -1.553275352074303
0.5917199699880658 1.496758049415085 -0.4841417510826338
0.6646446797969181 0.1980623436298301 -0.7555985391334208
1.963828134132942 0.8197272261173842 -1.053691429503244
1.949732222316743 1.152742315787974 -0.9767263443706526
0.3513586874590109 0.8101143852293811 -0.512973609042195
0.4171426908276186 1.454226760419399 -0.5762378704147662
0.3780903776487552 1.541494777625571 -0.6843041210763809
0.4145786019071085 1.436833050638442 -1.932977797973606
1.225860224031143 1.96649182556356 -1.128013483042518
1.703413266259954 0.4512405629388119 -0.7982557614249068
1.018884570911683 0.001307535646714597 -1.202494898953444
0.4981044130733979 1.570910991863938 -1.899739531806813
1.639569656089518 1.121680281688341 -2.009041872400846
0.4243932113734088 0.442477822349015 -0.6517978215400029
0.5145478053149111 1.288197984637283 -0.4246042837968939
1.63540147807192 0.3351012811085519 -1.642650805781079
1.122781274126932 1.684289844276971 -1.968799115012787
1.121002411103944 0.3288843799785155 -1.981411129987923
1.11541422367291 1.306366522714077 -0.3051089423991438
1.83243666155005 1.050662082943428 -0.6982006181054197
1.902082896487727 1.049685795345466 -0.8213069051113582
1.551178731718249 1.260424634755925 -0.4572951272297454
1.806936970592272 1.201779091913226 -1.805101723612926
1.838036964923167 1.262281599873529 -1.728437464868867
0.2990811026567572 0.7074411539875907 -0.5995216983119113
1.074136559994544 1.917532287975039 -1.640689481552121
1.534341982693051 1.570613353491059 -1.873601672824366
0.6281723508430561 1.916152673287456 -1.399694617640945
0.6320471999142483 1.062974912975941 -2.177709489681294
1.265050663109317 1.725504238974725 -1.885131281874084
0.6938465781372914 1.876975917566714 -0.8796173299278506
0.1331952494463232 0.5042842717132656 -1.30399482518474
1.614350122973066 0.7314455514290347 -1.991924817320275
1.300803184503678 0.7638540901600527 -0.3260126876096677
1.551694327809925 0.2858156199828719 -1.680783054450735
1.615797091503282 0.5682647540687029 -1.909089234866373
0.133617959152773 1.468141859062039 -1.076145580754093
0.3820055474423379 0.8544418305021262 -0.4774097619692677
0.4765815625646413 0.209677209071332 -1.568469818807762
1.089125421458466 0.004373784408733927 -1.278019601661414
0.6767394235778983 1.266533476897029 -2.157999176995459
1.425740968448037 1.878611630301108 -1.03369874969257
0.5779330485105837 0.1097217106888979 -1.421067402042962
1.243821499863915 1.38074123472667 -2.141956943121652
0.3359351438827062 0.6098262591870539 -0.6122051122422273
1.975170579319058 1.05799966353483 -1.03627498915574
0.5461767978454946 0.5444627284266891 -0.4841473409370609
0.4501546296082743 0.2091215188225276 -1.518665771301817
0.4228517302855843 1.757318148147639 -0.9444364268243237
0.7120831473449687 0.2254689349046639 -1.813210009818278
1.079495788190303 1.327875648021751 -2.191370266735847
1.081590532147501 0.395607573291663 -2.042497810471104
1.876254072594952 1.244058575172058 -1.665468665660536
0.0678883737221917 1.17869279611921 -0.934981269171438
0.8178429126428302 0.3316729359248474 -1.971219613536847
1.013663956093903 0.4315069232311376 -0.4274254331856983
0.1631602005991211 1.519273124207435 -1.423362546746828
0.6351976191216456 0.06893283567339947 -1.24424166531825
1.787975713853486 0.4132705957687361 -1.436662477717177
1.562086886600774 1.349289480848066 -0.5002965983268199
1.628294514325217 0.8771556190677217 -2.018215634663995
0.3757166464026616 0.2673028667104268 -1.52097085690255
0.3485001544615237 0.9200988332706279 -2.004429423351599
1.05893442272461 0.6497076009167787 -0.3152155494646703
1.595731731213037 1.1699729837399 -0.4650077139076627
0.732519147316117 1.956393865990654 -1.132676658149562
1.978258894497146 0.8118873924072 -1.337310836680559
1.391094264243549 0.2094103758459426 -0.7788171027554766
1.945103322279984 0.8098190721173509 -1.515727162490083
1.483667889675124 -1.180601944269034 -2.122496007072797
1.995909134586004 -1.323881495808033 -1.19797577270805
1.731250485075809 -1.317099001038133 -0.5711992544670574
1.184748647467476 -1.312675122682728 -0.2692147195967696
1.829546018893992 -1.182017502068031 -1.804284928995962
1.872488681216856 -1.321699122657961 -1.733345359922438
1.996917333733128 -1.182017502068035 -1.289168988720173
1.870421942171374 -1.178956137210155 -0.7628466235911824
1.487490823036059 -1.18201750206809 -0.3795225003306725
1.489184892225071 -1.31818536184901 -2.119510723135871
1.553053894323982 -1.316730170683064 -0.4195311719915747
1.117265476319197 -1.18201750206915 -0.2592289931378119
1.117265476329228 -1.317982497937208 -2.240771006860564
1.906042197198714 -1.31798249793408 -0.8323088259611302
1.678303475879502 -1.181182904372652 -1.981552186764008
1.979873457574417 -1.314406328681734 -1.438943991613643
1.34531632006952 -1.18201750206808 -0.3139791567125328
1.678059897498425 -1.176891350233771 -0.5186383242650838
1.959968425141616 -1.180776187117992 -0.9785802393686069
1.960228609621497 -1.182017502068033 -1.520812476151482
1.678771235390456 -1.317135206697697 -1.981274554478803
1.345316320069345 -1.317982497931979 -2.186020843287528
1.346679150036273 -1.323277103961364 -0.3148828774077749
1.82954601889399 -1.317982497931967 -0.6957150710040352
1.783984853235817 -1.1791076064707 -0.6332812485123376
1.99077100686201 -1.182017502068033 -1.132734523679943
1.906042197196056 -1.182017502068033 -1.667691174044981
1.933997062146062 -1.310592867420911 -1.602105087041124
1.784894866181989 -1.311685241462838 -1.866550873835103
1.959242965292132 -1.315136016952047 -0.9750268507050555
1.345316320069512 -1.182017502068032 -2.186020843287467
1.039168988720203 -1.182017502067928 -2.24691733373312
1.220327460423957 -1.170042443578255 -2.222143301861507
1.039168988720125 -1.317982497931889 -0.2530826662668647
1.258886278035875 -1.32181392847252 -0.2867655245361723
1.212545270060615 -1.384481018100886 -0.2821470339222959
1.136264699005876 -1.374262834145289 -0.2671517513598458
1.292388544679779 -1.393977542047104 -0.3046009274776524
1.365739261522034 -1.396631920556761 -0.3309059501578998
1.428812408888589 -1.328744162923837 -0.3500448484571079
1.435725167843129 -1.410550306430129 -0.3643549372275208
1.322181058025397 -1.464422224268952 -0.3279249078360316
1.166502333326937 -1.448564660020308 -0.2841588905064638
1.089832040704449 -1.439588369857756 -0.2722544019646251
1.551322223988085 -1.180012632904294 -2.081351654706865
1.614369440326396 -1.17930276394819 -2.035844826672331
1.493443586873032 -1.360136323260154 -0.3872234258670374
1.541748870336046 -1.398183141231628 -0.4226246812090985
1.601400223631528 -1.371170899940664 -0.4602941154939282
1.585506886878288 -1.446168346625517 -0.4634253594220654
1.527658934776795 -1.475944884430777 -0.431144116617716
1.56825259176267 -1.522765846281204 -0.4736703116217269
1.499739067074422 -1.548537729580127 -0.4368972458189989
1.543369773918653 -1.594844435107167 -0.484603629243507
1.473611350363678 -1.620929920438748 -0.4511863277772482
1.60522910537669 -1.567231268300499 -0.5198890136305382
1.583314720239914 -1.636655215001904 -0.5356879660377668
1.642774651585915 -1.610896979122729 -0.574282516328981
1.665112005485465 -1.537070189641483 -0.5606403504858253
1.69965590554759 -1.57981914950618 -0.6162011814058009
1.720639198011315 -1.504920529608829 -0.6052561207164796
1.752898294150508 -1.54674368053229 -0.6625586440082675
1.729654290292077 -1.620645731754893 -0.6753467496043852
1.781036240349221 -1.586668288014708 -0.724037211291142
1.755460164632866 -1.659478449736543 -0.7385243516507951
1.643508251217443 -1.112978424888568 -2.003075174580234
1.804470205969719 -1.624349169928162 -0.7888163200186569
1.776486046232764 -1.695949327145845 -0.8048049667572896
1.823169725555509 -1.659886781884039 -0.8570821600313696
1.792602153537188 -1.729833248713013 -0.8737794800416553
1.743610433059408 -1.764799691434392 -0.8233563529779739
1.757355069768717 -1.797148185689038 -0.8935702577045301
1.80399695177498 -1.760730885315432 -0.9454628687311588
1.766296805627955 -1.826278462332507 -0.9659360291482335
1.81047182178224 -1.788048833231272 -1.018399310978046
1.770380448066636 -1.852010715701432 -1.040006991979975
1.723833244013889 -1.888421405059795 -0.9883063920883699
1.725671694533143 -1.912248535151984 -1.063378807627729
1.676825521980318 -1.946641631797321 -1.012097394627894
1.676437570409098 -1.968361293882199 -1.087552270588569
1.114135948462381 -1.506403105484278 -0.2901925022346351
1.723057939756487 -1.931827200316396 -1.139099663373779
1.671724841355221 -1.985788217858016 -1.163968401342132
1.71619743588647 -1.947063046837896 -1.215877550458469
1.662724601140844 -1.998808313126423 -1.240932848547029
1.616189204579159 -2.035245520532806 -1.189169607569362
1.605215639024037 -2.045897051556739 -1.266183745055324
1.55679645729487 -2.079893567721698 -1.214582893991268
1.544017346879786 -2.088042540904365 -1.29159117608863
1.590655978881387 -2.051530353564671 -1.34313756989617
1.527715191760002 -2.091137874161863 -1.368337454071678
1.479422112830836 -2.125057889691337 -1.316544176437627
1.461565227257661 -2.125503910079823 -1.393005050335729
1.411819534401398 -2.15672156146131 -1.340888288940761
1.392618739556684 -2.154432659036259 -1.416889456280267
1.441007753986819 -2.120529814524295 -1.468380408800324
1.370805245211623 -2.146843016242614 -1.491197169014062
1.321208040628745 -2.177890825101187 -1.439325147110681
1.298319212100763 -2.167199401260484 -1.514103968200006
1.247757272231886 -2.195536288078382 -1.461133753775111
1.224035361894004 -2.182051567549474 -1.534759603963746
1.172794415888122 -2.20751341431149 -1.480889911541053
1.148410684519713 -2.191088369027815 -1.553853501544672
1.096669540596964 -2.213679905057825 -1.49894987549407
1.071911970801779 -2.194254026337223 -1.571267804489256
1.019865774414541 -2.213816426263111 -1.515825595969077
0.9950114065230066 -2.191528999562962 -1.586895023586116
1.044398636122562 -2.230182970156172 -1.443054671340226
0.9675405445223264 -2.227402479423037 -1.458879814648982
0.9920549755678323 -2.240747074170559 -1.385488418727389
0.9152592568692336 -2.234928326353018 -1.400781956483818
0.9399167680955146 -2.245223046271525 -1.326948641404108
1.346776762738956 -2.133547758897958 -1.564784425552926
1.046954292449429 -2.169055492792305 -1.64132121791294
0.9699889451978079 -2.163458258463701 -1.65582428048864
1.021905675635812 -2.138155877292872 -1.70901991133835
0.9449528407594255 -2.129777468687211 -1.722187903116827
0.9969207321200045 -2.101745906695619 -1.773946016815264
0.9200136148158325 -2.090905765501943 -1.785237958043674
0.9721536806410281 -2.06005032034204 -1.8356987801011
0.8954569710087881 -2.046450661978383 -1.845598101175228
0.8436457105242988 -2.07456758393357 -1.793729377253522
0.8194478042501094 -2.02782133597211 -1.851992420148672
0.7681566305228699 -2.053464630105478 -1.798355031160432
0.7445953444412732 -2.004277331219039 -1.854842268304731
0.7965595102128051 -1.976268917208624 -1.906616651488339
0.7224153753944595 -1.950439374692211 -1.907519169730727
0.7751221056520209 -1.920228533245357 -1.957264905009005
0.7017536285093309 -1.892283073534232 -1.956060589003571
0.7552679122396442 -1.860046091502213 -2.003624556037906
0.6827376377364432 -1.830167395594045 -2.000166905815346
0.7371194793290601 -1.796093066114008 -2.045409451159576
0.665562515015603 -1.765504573037604 -2.0389275022552
0.8073082016908206 -1.828724809865758 -2.042431363154069
0.7207888275232683 -1.728764205018626 -2.082361674488351
0.6501015439563308 -1.69561360980834 -2.074014308863528
0.7063767572314084 -1.658475093388411 -2.114253139645663
0.6366828861605378 -1.624006030763476 -2.103299574442595
1.047660739434979 -2.068798491661261 -1.822099190673921
0.6932169499785796 -1.588165108696045 -2.139678885598701
0.6239333893149754 -1.551506589764706 -2.126166468575656
0.7619694372544366 -1.621434696646677 -2.147428391196769
1.016553501132927 -2.247993459937019 -1.31111493698908
0.9647172775905239 -2.249374148252166 -1.252537972543997
1.041453791908048 -2.24905304015667 -1.236786140224749
0.9895939501603805 -2.247358778084974 -1.17811688721554
1.066474874746137 -2.243946550059058 -1.162528023612235
1.014306990231276 -2.239186607245842 -1.104037107195072
1.091073928660291 -2.232733225573149 -1.088938065102351
1.040736223024645 -2.225077170066362 -1.031905817250754
1.11528851812201 -2.215413381820912 -1.016150561706167
1.064997801402365 -2.20483225926777 -0.960050620841389
1.1390012666781 -2.192154501517278 -0.9450023883165422
1.086379143971787 -2.178626506078725 -0.8891794688564385
1.162055090352316 -2.163079915518466 -0.875803239501338
1.108792266754255 -2.146509803799521 -0.8205417198541689
1.032557841957274 -2.15903985756567 -0.834564656915096
0.9143189335043488 -2.244910752285572 -1.196977836419809
1.055010348319944 -2.124335264481808 -0.7678053226535516
1.184307690179164 -2.128369085746723 -0.8089802447222035
0.6836518018302626 -1.510767141486955 -2.162098851789368
0.6160579686265588 -1.474336749255762 -2.145690537785341
1.237035829220419 -2.142173715233795 -0.8655002243021267
1.258637995785922 -2.104729676393035 -0.7999515943491193
0.6754791857579439 -1.43426002367245 -2.177757772697109
1.024186577905331 -2.024677641935727 -1.881893630711792
1.101062364279551 -2.030353836239164 -1.867117726850434
1.076069089003589 -1.983744200435617 -1.925154013559322
1.152558997175734 -1.988093018448994 -1.907224808187874
1.127269866187332 -1.939063114192841 -1.963438438703384
1.203339242312549 -1.940041759133619 -1.944618976984892
1.177482647890294 -1.889032892742789 -1.998422923012539
1.25298698065407 -1.888469661722115 -1.976879686523145
1.226465864881477 -1.835488698658128 -2.028406189458368
1.301230060290356 -1.833036027806431 -2.00453922433308
1.32726525262221 -1.885024073347181 -1.949744153741691
1.374450525716764 -1.827234178960148 -1.975663493935476
1.34865323601427 -1.77481518206327 -2.026537150233441
1.39876594012615 -1.88088320532187 -1.91556149696186
1.445620718443041 -1.818378838230642 -1.941641288202124
1.468270552330289 -1.866891361455738 -1.882588126652384
1.513440866412239 -1.804063120909382 -1.905280500813205
1.534551497489521 -1.848848958516797 -1.846351089053301
1.577897862370324 -1.786287872760679 -1.865166138695585
1.597655643458153 -1.829907724062547 -1.803637754687321
1.638895530930941 -1.765413629472459 -1.821105324008188
1.657036644350788 -1.807552867791801 -1.7573831368871
1.696275985114207 -1.741402421398499 -1.773185830080416
1.712462332783907 -1.782002136837803 -1.707570924299311
1.554572434067493 -1.743486986328448 -1.920014932443242
1.749659785629763 -1.715014200420476 -1.720926745064286
1.763441443362433 -1.753310655685764 -1.654766039126124
1.310600956943294 -2.11583758926301 -0.8577598763956846
1.331324382217046 -2.075737489212245 -0.7935114977812144
1.2784506887571 -2.062035418158327 -0.7371026480989326
1.350195757783671 -2.030514980454052 -0.7321590045997405
1.296351614940648 -2.014354469429112 -0.6773413185973599
1.36692731026569 -1.981558740700618 -0.6753817285486722
1.312230281460694 -1.961981139287298 -0.6210364806778242
1.419835447269923 -1.994277214154164 -0.730587229935015
1.674190105778409 -1.843736935617721 -1.689254086553302
1.679480078202132 -1.694258095553085 -1.83390201905968
1.797720645944898 -1.687728012162913 -1.664772176503149
1.809542318863993 -1.72223870186327 -1.598757569711115
1.15033795174554 -1.834161620381079 -2.047592440748223
1.163673191386537 -2.220483433072511 -1.072875770846733
1.240543820214822 -1.993607373539454 -0.6261516654071966
1.255184834947722 -1.940762884284113 -0.5734445050787064
1.183116845376736 -1.968401753549521 -0.5789060114736195
1.197464982523902 -1.911608809538297 -0.5266181065176205
1.124425156532901 -1.938893190318649 -0.5358959790378179
1.13827638784363 -1.880015459477141 -0.4858271390681784
1.064831026193102 -1.905263824476572 -0.4973870461019915
1.036981003580519 -1.494957392039747 -0.281171696604985
1.078368718048099 -1.844401991927413 -0.4496596873677914
1.149385102779511 -1.822697935901251 -0.4439595759008105
1.486621382104902 -1.91214844301252 -1.819876363691644
1.435523490253394 -1.941934877522453 -0.6742001956361134
1.841635940563968 -1.652627853370338 -1.60991631699799
1.850389772886782 -1.687054220424941 -1.54295194585173
1.815730577159655 -1.756400573587777 -1.529539057301028
1.854093070069114 -1.720384394537505 -1.471953934489796
1.886705557718806 -1.648493653672299 -1.484427092916931
1.887372570594803 -1.68162770249663 -1.412072352341332
1.706046290071981 -1.830475286186226 -0.8443559708283495
1.513384172269474 -1.11267103902651 -2.097099432263491
1.166750904503304 -2.037968921806793 -1.84270491318528
1.33092861082921 -1.899014084079282 -0.5649693633118441
1.565965752742092 -2.066742053346305 -1.13768265931416
1.504990973887431 -2.108760015568886 -1.163308870394083
1.845636908552048 -1.720747943045202 -0.998415833142769
1.849625661013422 -1.746645617645199 -1.072575743988247
1.882146204004643 -1.677848841349807 -1.053115659038544
0.8909132098055655 -2.218589939514112 -1.473458276367477
0.8389598219164387 -2.223091496769567 -1.41479987851203
0.8150270872182316 -2.203737263328468 -1.487002645714669
0.7635792291226086 -2.205229387375015 -1.427882086205702
0.6941058536093426 -2.027527372301236 -1.799436034972467
0.6276847900093208 -1.862204537897102 -1.947557874436087
0.5706483948272577 -1.656080042899822 -2.056694612535666
0.7403132360688086 -2.182911388089863 -1.499477707643769
0.6896472116388814 -2.181568521583539 -1.43937063222986
0.6672451689555527 -2.156336347279534 -1.510439336538422
0.6175558909832265 -2.152120329976218 -1.449788422392203
0.9786407434206826 -2.134112299761314 -0.7832139424006543
0.6410113860881044 -2.174485861803355 -1.37826950692711
0.5969474813292476 -2.124521920084047 -1.519740761631745
0.9553843752722037 -2.165066584177946 -0.8491726150185662
0.9023544831300327 -2.138342292446014 -0.8013204657141613
0.8792476433292263 -2.166481432663259 -0.8685807399436231
0.8263504688914797 -2.137252915006277 -0.8226499032892878
1.004702297161808 -1.8677212321752 -0.4636169077851722
0.8042519040120908 -2.162955140218985 -0.891955875812992
0.8492922212819629 -2.105107495684761 -0.7539371650107103
1.014430576070112 -1.801656305309486 -0.416053311484138
0.9912058756752229 -1.927528296747722 -0.5145558685505122
0.9309350828293801 -1.887077261895497 -0.4823004496601868
1.382296395198721 -2.084234096474217 -0.8526299728239308
1.783921741287842 -1.644537367508285 -1.729381861542414
1.198739491971686 -1.778811822468138 -2.075142818394951
1.122072703619386 -1.775766633165542 -2.091824032967
1.169979002046262 -1.718788869299256 -2.116801093033737
1.092861369822743 -1.714208372226939 -2.130844681626142
1.140361918279778 -1.655790328848351 -2.153123879049806
1.217000473342636 -1.659020727072659 -2.136348035138582
1.063220420379532 -1.651512452340738 -2.163668938435778
0.7420096370166114 -1.472881774597376 -2.190087595471839
0.7351039153995438 -1.393565563743818 -2.203529754790205
0.8061703533820281 -1.428055460084865 -2.214741582614702
0.550930189031655 -1.519034451683072 -2.102030966975053
1.572627380195528 -2.05208987933185 -1.419557391239143
1.19772807254709 -2.163802636921587 -1.604779297707697
1.703243345233502 -1.959716217723615 -1.291853168158218
1.701785624813664 -1.692251606017609 -0.6915105607267579
1.269858841990638 -2.203174393626611 -1.386509269773204
1.916731153318355 -1.609848614809169 -1.42353088184966
0.7995993426543249 -1.350428855631401 -2.224553036777367
0.7309304587685905 -1.314870046155449 -2.210933639276567
0.6089790155109488 -1.39719887549188 -2.158534578727271
1.914848874809914 -1.641776173359805 -1.347790420014349
1.882534149110344 -1.712024433690687 -1.33756082644014
0.7774400831681894 -1.272076759492596 -2.224669020801484
1.186831724782073 -1.594764352602525 -2.169908390976796
1.263947700662715 -1.597790943786231 -2.149651638544136
0.8141412198641189 -1.504572155961798 -2.199025569336972
1.36050333561525 -2.121709774598058 -0.9180972825051269
1.941615732415779 -1.567738954993988 -1.361363229777267
0.8789796340934396 -1.460414874238017 -2.2200925995673
0.9174104729019634 -1.943946003770632 -0.5347252878337638
1.848432686172238 -1.586984735818227 -0.8418293679598208
1.431052104634776 -2.087472794916396 -0.9140931663915581
1.91304841282177 -1.577549818200062 -1.493009696186702
1.486939908531563 -1.95354579567481 -0.7323970258319888
1.502421318492966 -1.899337220828937 -0.6790937096423428
1.936942917794668 -1.597223575958694 -1.289670607417484
1.050408963108833 -1.932667870039547 -1.978988007894479
1.23198395598313 -1.53150712431315 -2.18109461556136
1.307235233680652 -1.532603921468485 -2.158703215992895
1.063918887785815 -1.565351262300939 -0.3031800819852654
0.986607809875945 -1.553040403525688 -0.2971163958411976
1.141384924283354 -1.577465657472464 -0.3157748952412396
0.9596335096011044 -1.481800480439599 -0.2780745482698548
1.816704704836151 -1.788095427529638 -1.458438806296217
0.7929538023784113 -2.097697664372938 -1.738406123904183
1.155322270730697 -1.528473570432448 -2.197801383616665
0.9793562733755872 -1.980526920354587 -0.5674282051034489
1.015143281420774 -1.706950963619422 -2.139362973074039
1.349561046900702 -1.932308166226885 -1.892076818449157
1.775769934491118 -1.822415305882251 -1.515559270844339
0.7884748877693897 -2.221581910408726 -1.356234261245409
1.764797075624768 -1.891478605778538 -1.190078122157036
1.701454094667594 -1.114661820761712 -1.949746904469417
1.666229868977172 -1.046697050775338 -1.967499597574253
1.722739901848247 -1.047901833591073 -1.910911011718321
1.684967223172936 -0.9813140345817146 -1.927220610411409
1.738500901670898 -0.9840983844044142 -1.869606931090129
1.698840736616975 -0.9177154770258272 -1.883410309859628
1.749749051409372 -0.9216546547278248 -1.824513441225566
1.707989352022564 -0.8562023235718361 -1.836237552074625
1.65489316501479 -0.8533541014891519 -1.893262756275717
1.66195507302497 -0.7930904806461933 -1.844179410969767
1.606499936610686 -0.7917639192580764 -1.899751892030731
1.611930334965652 -0.7327086877553721 -1.848290032864544
1.665418958354804 -0.7355391350831213 -1.790876721934846
0.5700806759982777 -2.142253925019343 -1.388030098665033
1.613422360255867 -0.6767500709694173 -1.793228797841714
0.7519120731680826 -2.130091112170206 -0.8451642125018458
1.558042144590956 -0.6756031057935542 -1.8488799318614
1.557668234976765 -0.6211859847352508 -1.791847832794894
1.500623124926547 -0.6221262170499545 -1.845945466861506
1.498672959385442 -0.5698788464246499 -1.787364397813161
0.7194880950700624 -1.235888003870745 -2.209746801379314
1.440027692976246 -0.5726081058532678 -1.83950475075126
1.436628443496195 -0.5224563451004162 -1.779184119702628
1.495961433248949 -0.5237523498671242 -1.726011142102918
1.376629872043318 -0.527354421109976 -1.829597538638093
0.8575224007491455 -1.902350606631764 -0.5055949894453408
1.378768437024935 -0.5796674372225812 -1.888113411858696
1.314204498273272 -0.536564110260877 -1.87632640411928
1.31527331226648 -0.5910132670427357 -1.932890345779492
1.250023214497801 -0.5495947121899526 -1.918521372148947
1.665797976134381 -0.6815961777141315 -1.733353028113177
1.249934240262254 -0.6065755635537412 -1.973559168367276
1.1836272190076 -0.5676646795710982 -1.957601268324699
0.9093432943504007 -1.53905787562274 -0.2969906053657024
0.8825712560992891 -1.467013890586736 -0.2809203018335854
0.8314616364263545 -1.525513602385163 -0.3035925428734894
1.183154524277128 -0.6262582689941539 -2.009868852657253
1.116289206492584 -0.5888694556465432 -1.991203901619674
1.115346359903378 -0.649939892514442 -2.041595278321859
1.04811556657351 -0.6149913689939496 -2.021005143174241
1.048796722630009 -0.5564151724254783 -1.96872036761107
1.37123080512848 -0.4776326009458306 -1.765399156190576
0.9801157389753549 -0.582610753764664 -1.99444355741247
0.9796572067620453 -0.6436923839891487 -2.04496996517511
0.9121832878705086 -0.6157433065850566 -2.018118917830507
0.9116248008801326 -0.6782412940671653 -2.065648089785377
0.8440171028774361 -0.6505002966313013 -2.035028306155959
0.9811173461047142 -0.5276163818259104 -1.94123465883561
0.8441422508165446 -0.7154730345642866 -2.080655936740089
0.7773223613999949 -0.6901493124757752 -2.048111443938864
0.7777124823457158 -0.6270566055615121 -2.000019857617484
0.7117728595586748 -0.6684392676796962 -2.010731378435311
0.7130208839624801 -0.6073210683538312 -1.960356796107747
0.6478983474291186 -0.6504769047110928 -1.968746467450145
0.6504377523693929 -0.5917359452239023 -1.916704334185078
0.5860930883315093 -0.6363730956642835 -1.922415861464033
0.5847361803926637 -0.6969868099803233 -1.972310440039037
0.5242109225211522 -0.6846839578376374 -1.923826777611063
0.5269412652885792 -0.6258901924949014 -1.871853987435297
0.4665238477142732 -0.6760371862296271 -1.8712647449769
0.4703924220409983 -0.618842990709372 -1.816706840431373
0.4130079819462359 -0.6696005113245775 -1.814426083988398
0.4179449485871423 -0.615807131871503 -1.758931550544596
0.3548919805337574 -0.6787403946676703 -1.757442712565559
0.36744100915115 -0.6175773771121149 -1.697113798887814
0.3139517790279528 -0.6724524032675736 -1.692466509478048
0.3236963663845015 -0.6210802962911434 -1.633501501229444
0.2713544987149628 -0.6772437176230772 -1.625534252039469
0.2829896310444463 -0.6289543037101516 -1.566541267341366
0.2322527138340843 -0.6884696261058736 -1.55862233195152
0.2467784858079153 -0.6410523248577751 -1.498676656518183
0.1974952542656285 -0.7038081854800159 -1.490126289325386
0.21480493085103 -0.6569507217450542 -1.428216881763295
0.1693593196097624 -0.7194665946151508 -1.41902770734882
0.1886406375002856 -0.6753314774799615 -1.357014364029755
0.1452964339612555 -0.7400607962932003 -1.347179332800388
0.2338579146101996 -0.6174937118477241 -1.363851220645181
0.167023733013574 -0.6977902049551075 -1.284855141569588
0.1265746144814284 -0.7636637150142473 -1.274599061729896
0.1508980610202857 -0.7231115106883068 -1.212391263624907
0.1128487247961337 -0.7909850608856263 -1.202377520287353
0.09140232815654215 -0.8325973374434406 -1.265009597307827
0.08028659674984751 -0.8616381775527449 -1.192533916546636
0.1399861110015472 -0.7517085355817408 -1.14008308948272
0.06159038821746565 -0.9045196573971586 -1.255543770303379
0.05337727195064457 -0.9347277337166946 -1.182852335461428
0.03734299781153472 -0.9793144255271635 -1.245437554402765
0.0322935050166363 -1.00994461975878 -1.173074360683474
0.2649068042541183 -0.7260751421062769 -1.680279835513063
0.01924178284465095 -1.05528765659616 -1.235842923732418
0.01724245322823204 -1.086443565186302 -1.16376255515051
0.0072166018594505 -1.13236078856725 -1.22671609332642
0.008262795051765526 -1.16388032956728 -1.154917306064546
0.02134496258845164 -1.118396304055287 -1.092155820624604
0.01541639126233119 -1.196218387773888 -1.083558852468901
0.03074216137242769 -1.1512581069841 -1.02463522719235
0.02836271335591589 -1.228923271708566 -1.014464960722505
0.04662848356092653 -1.185255926868431 -0.9552272796933278
0.0476038116175771 -1.262175958026407 -0.9453801608549246
0.001310942734143672 -1.210162760212084 -1.217857174618353
0.3795108953486706 -0.5683830393824761 -1.637803545635571
0.0694480953539105 -1.218438165467845 -0.8852027914573635
0.07276043348768968 -1.295405076471875 -0.878294249002459
0.05336900110149967 -1.340171289013732 -0.9405506655976953
0.0814083075460017 -1.373323821011185 -0.8745262489524732
0.09746257645887235 -1.250465491585631 -0.8193888268689177
0.06585062332740277 -1.417682819610854 -0.9349644241207795
0.09601142716647082 -1.450477405473591 -0.8723580133499769
0.003329050187047988 -1.178848499613672 -1.289805549760334
0.0005042270787471992 -1.256810344034247 -1.281013208906574
0.005605519663291814 -1.225585393064527 -1.35287635512631
0.0058570096936994 -1.303584443509572 -1.343853195143351
0.01402803244567397 -1.272314462698305 -1.415412647495701
0.01733625070510714 -1.350196347052686 -1.40598925558833
0.4100235910077901 -0.7269312050636262 -1.865082817672926
0.08334362151871877 -1.494266260096034 -0.9336535475648908
0.1161569357718197 -1.526368376078571 -0.8725851638853683
0.02854628103822288 -1.318737244771869 -1.477052555802626
0.0348321212493482 -1.396499076806927 -1.466769431245933
0.1057927425404446 -1.570948108605218 -0.9379331925862768
0.04898447608716427 -1.364679028608947 -1.537085690472554
0.05835330896209201 -1.441785501630543 -1.526622180277865
0.1417502214168977 -1.600628896413414 -0.8752111333537679
0.1551563061848515 -1.556380219276616 -0.8113996189504751
0.1355978890000116 -1.644506785962438 -0.9382735392554055
0.09760877564523351 -1.173899752597555 -0.8258551773830169
0.1281863940966314 -1.205578219782127 -0.7621806256368647
0.1306498626131039 -1.129828731051338 -0.7706366672922789
0.8050589670519861 -1.451756201191539 -0.2901602066209588
0.756858402062167 -1.506433046974303 -0.3145192381605532
0.1641334913471512 -1.161195680852351 -0.708298077709503
0.1693715541866533 -1.083536211091815 -0.718637419469497
0.2052853220687589 -1.117533252510666 -0.6576477893261132
0.2130324474193804 -1.040335245558914 -0.6697218236652107
0.251387877945402 -1.074860439656845 -0.6105423977184118
0.2606136862454363 -0.9992665442092915 -0.6251475268675918
0.3007232403249496 -1.032224048278802 -0.5691287579649966
0.3144915041748061 -0.9575595841479518 -0.5832491429868566
0.3572780974368733 -0.9935295123505059 -0.528105655285716
0.3716634150192358 -0.9184958183073055 -0.5462258078794251
0.416412157167755 -0.955373410361775 -0.4932831425317948
0.432668337648922 -0.8813062822223336 -0.5136578734275453
0.1834566173719649 -1.629533142536022 -0.8150155198135247
0.3889137386885883 -0.8451097615879799 -0.569825407652492
0.4522136121148073 -0.8092084853095542 -0.5389213026502653
0.4111607587286058 -0.7747841913434643 -0.5962123562334297
0.4760485200343182 -0.7404385984782582 -0.5674884435257012
0.4366499675025723 -0.7074661586963753 -0.6268677733213595
0.5029047591958316 -0.6745075440021663 -0.6006120153102404
0.465143229295959 -0.6432610154018141 -0.6619557504738208
0.5328394705158528 -0.6118374458190231 -0.6380281100137827
0.5722408878046037 -0.6452470415430328 -0.5782143190188168
0.6037084514638229 -0.5847851802889188 -0.6171949334940873
0.5657188083685938 -0.5533880114197234 -0.678920685052034
0.6376071669171857 -0.5283515647186711 -0.6601737795026226
0.6011030550006702 -0.4995175195226148 -0.7230680558490378
0.6739593603931046 -0.4762828718211636 -0.7068063817685074
0.6387083337108591 -0.4499828116387317 -0.7710001772478963
0.7129432621764729 -0.4294437856457823 -0.7557471008129641
0.7494583145437891 -0.458471173886966 -0.6925854493459258
0.7889540431333653 -0.4138540435799001 -0.743719896053022
0.8261816541178396 -0.4453940937428141 -0.682200283329727
0.8662715025457948 -0.4033098126099022 -0.734992800491137
0.8295761241979666 -0.3743675776519239 -0.7980889872005181
0.9073631074331152 -0.3664821176372974 -0.7908545353802598
0.9444079288655216 -0.3980952964338029 -0.7292621603255924
0.9857283566581604 -0.363946595016382 -0.7866365533263765
1.022881027579637 -0.3982426814841474 -0.7265633477376805
1.064188164958761 -0.3667766602187119 -0.7854610763942227
0.8710690281165122 -0.3401472556533739 -0.8556083316117182
1.101206426079063 -0.4037510580319944 -0.7269130210583196
1.142258241759157 -0.3749548447610002 -0.7873353601750528
1.178900663426441 -0.4145864258033871 -0.7303090219432135
1.219456702087264 -0.3884306690685264 -0.7922478357153571
1.182255896536351 -0.3514799215312049 -0.8506950328806802
1.258834228101212 -0.3676728178760111 -0.8569305582363453
1.295296689960551 -0.4073156402744943 -0.799796785026632
1.33384380375785 -0.3891259529450328 -0.8660153781729114
1.22096025859176 -0.3333998457321045 -0.916802278940668
1.369643115885273 -0.4312243375918136 -0.8107160581962255
1.406800125034581 -0.4159000976613654 -0.8774533436057581
1.137416442928656 -0.445978642536082 -0.6714964322022604
1.441040043636879 -0.460814087660948 -0.8226017364630989
1.477211083778492 -0.447746191610659 -0.8913101500686768
1.510043813400688 -0.495097346441654 -0.8377169757772558
1.544647781434508 -0.4845041912397715 -0.9073997067295589
1.472719259429516 -0.5102975704846825 -0.771067000997481
1.510194561126088 -0.4396441300432404 -0.9618596282643095
1.576045986372292 -0.4787637430018864 -0.9791390440172063
0.2413850440053532 -1.149221938537266 -0.6063019878319853
0.1993493468051407 -1.584319120597756 -0.7528186878598635
0.2301461406543507 -1.65637006118923 -0.7578735847166189
0.4764547628355779 -0.9195552222551104 -0.4646932869868108
1.608769177692938 -0.5259960767107963 -0.9256261302865089
1.638338368641497 -0.5225638494427166 -0.9982843390201674
0.07547445942109499 -1.409521433106456 -1.596129220374336
0.08763794976968142 -1.48619742163223 -1.584374441777203
1.540196265155193 -0.4369893980392833 -1.032740348403452
0.07337885579577719 -1.517800807564245 -1.51392419855253
0.1055023579638515 -1.561434699195123 -1.570752858956883
0.09405454784006251 -1.592143912029933 -1.499400042445025
0.1288767265222489 -1.634779639289138 -1.555104689563972
0.1202527650683627 -1.664355934669609 -1.483139361829385
1.669136384443187 -0.5720367893492049 -0.9456607419040977
1.696687210260632 -0.5707740946547277 -1.019177339571799
0.06908696566067973 -1.331880013625538 -1.605944638765414
0.09835503678814905 -1.376461596103753 -1.66357444919336
0.1807042597537458 -0.6853581974979911 -1.150329919827338
0.2484632775484188 -1.610012628095932 -0.6972039594767387
0.2816086610693517 -1.680880494143536 -0.7038719161990912
0.2655889469038794 -1.725945453081597 -0.7661443078962491
0.1431307131882494 -1.602984915195939 -1.625734846617715
0.1692531709262305 -1.675180202443441 -1.609279141384567
0.09479648573141253 -1.298498557073809 -1.672201951342669
0.126691794955071 -1.342802756800718 -1.72824724498045
0.3192941765440614 -1.749056007478011 -0.7137326382173912
0.3054589960020995 -1.792615844465459 -0.7775798066333051
0.1260405210791352 -1.264628872478635 -1.735778576405315
0.391983600637053 -1.031352052001797 -0.4867771407105966
1.725376787094527 -0.6223421443762056 -0.967379878603519
1.750732354931118 -0.62309690249093 -1.04168908431599
1.719808378409135 -0.5735451404491009 -1.094164441278682
1.771656077539778 -0.6279075678806668 -1.117531498476893
1.738357174241608 -0.5803328225436217 -1.17015919161509
1.787801312587918 -0.6366617884502175 -1.193561270942128
0.1607948756754181 -1.308774511969165 -1.790629555287305
0.1860316616886154 -1.642194988230208 -1.678530787031352
0.2146930868036993 -1.713128483171594 -1.660858929757254
0.3021949442986037 -1.633302149444382 -0.6448987138760254
0.5666712452610152 -0.4751917023296829 -0.7896758835585669
0.1622126306343509 -1.230634915707509 -1.79565311072304
0.6442303783634502 -0.6198652608073348 -0.5598129334860164
0.01676755426810972 -1.194349787634127 -1.423657742481349
1.695746407532094 -0.6255814216758717 -0.8949811618380524
0.2295956275191771 -0.9617820943917604 -0.6813106808201604
0.605539358654426 -0.428240479381464 -0.8387675928358364
0.1307922986270854 -1.190186773728739 -1.740816004055529
0.4005837531812569 -0.6779937769340437 -0.6900812167612598
1.181758787174336 -0.688723767221705 -2.057423515760545
1.749719943809234 -0.6778584836394028 -0.9174731723435305
1.71778511903709 -0.6829837666082469 -0.8459243709908503
0.3612872113723496 -1.814118356994112 -0.7267252605506795
0.349383411006904 -1.856054626239367 -0.7924020933823561
0.7312004582758946 -1.432926199603429 -0.3043336677942069
0.1999687293514718 -1.274565061129526 -1.849455189114419
1.818620327566911 -0.6861161165330237 -1.140932473850166
1.832358356019673 -0.6967152391899154 -1.217510915378311
0.2043277552633052 -1.196262780356542 -1.853339034192766
0.2436679240171734 -1.240569625357693 -1.904119911693272
0.5946274459946859 -2.161758947825288 -1.31609624436935
0.5251125631975191 -2.126798032466871 -1.325545566576694
0.5348163082498729 -0.4560664189180661 -0.8584982736179331
0.5749511830265565 -0.4113473861060369 -0.9094191778765293
1.752220879790172 -0.5910972657777723 -1.246693212711326
0.777356686016497 -0.755165764335731 -2.089981567626934
0.6825792339779881 -1.487992126767626 -0.3320654680781306
0.7079777799149511 -1.561574287736332 -0.3457630364787135
0.7813259852868761 -1.376589836688164 -0.2824480951718876
0.7070090462893657 -1.358349357062525 -0.3000438337123811
0.7579244369126732 -1.301650315574909 -0.2811183422847938
0.5511445783247418 -2.14359793615304 -1.253396900904366
0.4830338664413906 -2.105911003551751 -1.262742478271371
0.4584284001094114 -2.086373442182645 -1.334732918063178
0.4180279942314823 -2.062909083288456 -1.272077291701912
0.5106151211448662 -2.120046237561075 -1.190653687108947
0.08810649251236158 -1.620563162240197 -1.426445951476473
0.1169409243360344 -1.691418435024846 -1.409237037487259
0.2508877287312969 -1.162188360276244 -1.906597228872975
0.2930168010740126 -1.206468822077431 -1.955889363133523
0.244655226307582 -1.32886414098611 -1.900564923833181
0.9118200842468638 -0.7442541241066399 -2.108163977031563
0.1545859288142277 -0.7664536471197542 -1.476843498600491
0.3951131346886334 -2.040790681509614 -1.343605439005163
0.356444525137975 -2.014784333454407 -1.280680190315777
0.5056264157495132 -0.4418027333399023 -0.9299813484209498
0.5471960695847662 -0.3996595923391357 -0.9818772823879495
0.233940398776645 -1.678822895416588 -1.728814798998577
0.2649966877855786 -1.748379473857722 -1.70976954126076
0.3013296264353149 -1.128455799507403 -1.955043769158766
1.769566423073578 -0.7369804396730081 -0.8697652682886019
1.735335555121081 -0.7437729874064306 -0.7994272166504476
0.4073285649331045 -1.875665947487369 -0.7427695866664942
0.4210064881472816 -1.831977905017006 -0.6789761552225048
0.172384681015607 -0.7155960857714591 -1.078345287744334
0.4797626505467796 -0.4323431938571437 -1.003442810686544
0.5217432719256128 -0.3943535429920906 -1.052162585284296
1.860628734553258 -0.7478941544831899 -1.165100640997083
1.87174260850074 -0.7601031184908631 -1.241883965749891
0.3974706285101813 -1.91561601366665 -0.8096436910380381
0.3414923481155253 -1.894017728871978 -0.8606302049360082
0.6844334867899985 -1.283162842453259 -0.3016762147763549
0.7362097164617267 -1.226332873832673 -0.2857103373727492
0.4688565555425738 -1.891661240589136 -0.6966849959241015
0.4842482110625488 -1.846084251063597 -0.6346272204250744
0.4433277537815535 -0.4740022444522427 -0.9534473172015596
0.5916341425508534 -0.362928353799423 -1.034729888333699
0.5585312528923099 -0.3635070404970718 -1.111307613478943
0.6389033920435838 -0.3314563064508429 -1.0891064862605
0.6172631262090604 -0.330294724066323 -1.162508909822213
0.6884579233711767 -0.3056665404989067 -1.144284098847443
0.6687287251100309 -0.306998238844613 -1.218266407536921
0.7403423394116855 -0.2856053836062535 -1.199791204270943
0.7214485408645022 -0.289877693968508 -1.273963348560984
0.7937876399875566 -0.2715079611586432 -1.255458250835481
0.7743049640955313 -0.2791750678249902 -1.330998159457289
0.8483483144877664 -0.2634617509529429 -1.311188638230192
0.8293748290215696 -0.2742036961033774 -1.386779473351346
0.9040866424608918 -0.261445783547657 -1.366452518134514
0.8856284959590962 -0.2752267024988418 -1.441666839964925
0.9607099129359679 -0.2654709467315546 -1.420759574632989
0.812212392114505 -0.290530595510003 -1.460129189243794
0.9424632310336403 -0.2822410130900441 -1.495218399537897
1.014610820610654 -0.275236713608315 -1.472762338432611
1.035985400990219 -0.2617911883771393 -1.398823370296828
1.094734719435158 -0.2769976928082707 -1.460456273684377
1.111281826118169 -0.2643514991637369 -1.376938520453929
1.16756869481101 -0.2802765970324116 -1.42764361586135
0.5986548630488095 -0.3343848864686166 -1.226103453836548
1.185216674289556 -0.2725605601061172 -1.351523026476998
1.240889405806029 -0.2913377266748671 -1.401456065819454
0.866895580428287 -0.2589761992243699 -1.237548502632145
0.9956012312590709 -0.2942396093742305 -1.544113458625138
0.6357624252923412 -1.541447725561184 -0.3654723224023484
0.07169253722639968 -1.532776006174958 -1.008581307909722
0.3463166829696451 -1.173002355652424 -2.002840941900158
0.3574052128281678 -1.095307090029073 -2.000427906666799
1.258189014933795 -0.2869087336699813 -1.326115998885633
1.311614070101914 -0.3076993359584388 -1.37233613473276
0.6632970563847689 -1.613261724484941 -0.3812813762298721
0.2712869278099417 -1.561286819076798 -0.6400182177405823
0.2479733790933019 -1.781260750193409 -1.6401512229272
0.3006952556640465 -1.814862384537656 -1.688067758553012
0.3198098050131486 -1.780399748886554 -1.755981625184976
0.2615676805344931 -1.085084475771561 -1.903850578830707
0.4568745602015237 -0.4292155271787567 -1.073003938407473
0.3392503481336533 -1.251762925142916 -2.000604282997001
0.3355575783207264 -1.990331108533178 -1.352108364060043
0.2990627568093283 -1.962165602627489 -1.288821843625558
1.784184418922365 -0.7980537381449165 -0.8247949041761042
1.747574968409209 -0.8048313989336571 -0.7570937378845697
1.696467867165794 -0.7535070764776821 -0.7319003118146163
1.70758108615514 -0.8181023494049885 -0.6907206190766361
1.653416221600899 -0.7659510843186039 -0.6679829138449026
1.662528395180626 -0.8322165069078944 -0.6282982399259736
1.605808809114611 -0.781541759555598 -0.6069272484711618
1.612918938429683 -0.849232791055974 -0.5690330263886175
1.554577029061556 -0.7996693104065045 -0.5502524820712081
0.5337143837249032 -1.903856863437709 -0.6541401790770291
0.3576379164851015 -1.845191889710844 -1.732822501634745
0.3272207284380039 -1.583504094746155 -0.5895887110716097
1.201494549247169 -0.270819807399749 -1.274619038222794
1.897375813199214 -0.8128689259421129 -1.189725013661984
1.905765208910246 -0.8265389023069356 -1.266434265069134
1.877370726160938 -0.7751071985352487 -1.31853784350845
1.908635046458516 -0.8429103117159498 -1.343060937240748
1.877530821513485 -0.7929231089874043 -1.394984043936316
0.2981242279105073 -1.510682065930736 -0.5871159520279116
0.6344575339405498 -1.339643429788525 -0.3235321047100846
0.3757130019486075 -2.014170195203679 -1.412202517940849
0.04851177899086723 -0.9499405014320278 -1.318076887414251
0.7168477493286699 -0.5510480278588643 -1.906727449997164
0.01214294925704096 -1.380164795626617 -1.334826725015787
1.700473946333002 -0.5368172114001071 -1.223418793226209
1.712093337583497 -0.5496977417564309 -1.299998256651149
1.658167580202831 -0.4976017235095227 -1.276688385191113
1.667671682534392 -0.5127248058526731 -1.353149466487793
1.273831826426822 -0.2882225263235719 -1.249528869085798
0.4037042270899879 -1.140200026946181 -2.045220294715264
0.416705247802987 -1.06291306229481 -2.040421223019422
0.6636131266731793 -1.207830742055092 -0.3092207351680304
0.7163158573381159 -1.151102405888316 -0.2961957364945822
0.5801163306942104 -2.154974791317696 -1.181309889141158
0.5408278974523308 -2.128584201040214 -1.118657767932467
1.222988275565234 -0.3023825066221375 -1.478686062550169
0.5488870516824181 -1.857571559957019 -0.5962768878251183
0.3217746630246835 -1.984112063285025 -1.216986808331791
0.2670076386697419 -1.929777927489453 -1.225016654955032
0.08769490615588649 -1.646517032942185 -1.352340892769261
1.906022324030943 -0.8620997101939057 -1.419283529990123
1.756990608234201 -0.8610815503131237 -1.775078716516267
1.561954060607574 -0.8649356522393444 -0.5179254943311304
1.5013026517649 -0.8188673444119656 -0.4997865073066942
1.493794371050538 -0.7526554001324715 -0.5366869774766397
1.437574957909515 -0.7739903467879563 -0.487148136097554
1.442967306370088 -0.8429526220558992 -0.4511931412437291
1.378028278586173 -0.7994384781058632 -0.4412423505291501
1.382415866485574 -0.8687167596108688 -0.4083461544919718
1.317168084036847 -0.8259402468445264 -0.40172072274391
1.311719895631089 -0.757561387500101 -0.4373900569234233
1.249221469103671 -0.7864923392115154 -0.3996769392000501
1.243575790115558 -0.7185732447839827 -0.4386699572244616
1.18031662629486 -0.7490400891986897 -0.4035219541821636
1.186360754128944 -0.8156451859835311 -0.3687477291596861
1.115829973385044 -0.7824353245007232 -0.3736629121788375
1.110390212517396 -0.7145224929375565 -0.4126960883821484
1.045554340676895 -0.7494661370035267 -0.3854824154250411
1.050744970560223 -0.8188734343902047 -0.3491366183552885
0.9803206794007421 -0.787342462750481 -0.363681362281622
0.9747802371741968 -0.7177605858516761 -0.4037818427910808
0.9096958763238746 -0.7579138959198417 -0.3841498793565373
0.9859529436399401 -0.8492393780369327 -0.3339248916756919
0.7837203993914871 -1.192826362975864 -2.224655995513316
0.7236190822731089 -1.158180910474762 -2.206651892338691
0.7886463884198639 -1.115697552544583 -2.21813867987986
0.7200158087322053 -1.078092036331347 -2.194487429597354
0.5198624719224962 -1.947433945460847 -0.7179719501280585
0.5242295440858118 -0.7470240509791137 -1.971566121700392
0.3565315426611497 -1.531793706897474 -0.5382833069521685
0.3298633087856774 -1.457945869351986 -0.537486610295802
1.611699210499348 -0.4629284151762284 -1.329639162712021
1.619228331980098 -0.480404650709634 -1.405818070915362
1.671237957168624 -0.5304552538839696 -1.428030792822225
0.7897575902440988 -1.169793742361832 -0.2756463242868575
0.7706262117142006 -1.094839759268402 -0.2891082449393512
1.873099203236656 -0.8138899774897135 -1.467958320725762
1.897782573489408 -0.8831350360536452 -1.493714072157056
0.8713735715041769 -1.843491358826725 -0.4555044059968514
0.7879905637546756 -1.038446810425998 -2.204094988417823
0.3914935266656494 -1.951581513090265 -0.8791856901356625
0.7376059906082213 -1.631509264446326 -0.3636591710989893
0.01565721975204459 -1.271091623815396 -1.075001616068733
0.5242882196240374 -0.7774369910037155 -0.5081223116039211
1.049303951739892 -0.5016330161560945 -1.911449905764001
0.9816238956955836 -0.4751413870617255 -1.881867429723962
1.049881267225003 -0.4524514269078704 -1.851188932648245
0.9821061108199751 -0.42834894065221 -1.819709878273729
0.981611096236386 -0.4350213472763507 -0.6708008599599634
0.6549360521728127 -0.5370977084110518 -1.860492583539835
1.214622377602248 -0.4593448265186505 -0.6765877297445273
1.30521699974685 -0.6912228468479122 -0.4788899714173215
1.02695843727644 -0.3352118283921464 -0.8469666964803377
0.2954491448808164 -0.5891871961102378 -1.508717086343708
0.03882489220180951 -1.074354140135244 -1.037183308780755
0.1347304529830109 -1.060951447051381 -0.7857056368713403
1.369701675530019 -0.3761215562012182 -0.9343148141357982
1.314597393815142 -0.6495708129592449 -1.98519607667227
1.236334956646439 -0.6541597743414914 -0.4824583309330084
1.319129362864691 -0.8989389722917402 -0.3697087955784194
0.07506576705523282 -0.8923853488720852 -1.121126317560431
0.7018336432791328 -0.3002073126072902 -1.344819168395103
0.924257361242465 -0.3049151063526639 -1.56792703010856
0.2447502871127119 -1.487393452645119 -0.6390644716298627
1.597164683795916 -0.8535512487749156 -1.9472967288601
1.756620075059369 -0.8742505180847043 -0.7148940395981923
0.3899464669349051 -1.478490166560188 -0.4912991824308526
0.3652544787221352 -1.403968597246827 -0.4927736175491929
0.6485129138356623 -1.19986907689961 -2.184849570149554
0.4785320092695247 -0.5659688266170493 -1.760071062190225
0.9048722072928432 -0.6924885275182574 -0.4252990474687789
0.8399932783843772 -0.7335169834585565 -0.4087847227599396
0.9702223393191519 -0.6547586289776157 -0.4470049806208206
0.5029724002096516 -1.797539776440705 -0.5768256108095705
1.883511000535799 -0.8020543745080611 -1.113058302424476
0.1616943562247301 -1.385052384085104 -1.778208766651463
1.917482485982137 -0.8683593290612233 -1.137855957797846
0.3715380611464325 -1.018424757875644 -1.992568851115814
0.9001972587975389 -0.6296046195031876 -0.4720867755933893
0.5861813053512611 -1.957543563784867 -0.6771682678955153
0.6927253555543623 -1.682885552825242 -0.40253767574246
0.7223158343359202 -0.4985892881333381 -1.848559475934915
0.6613654812325986 -0.4868994469855749 -1.800458180689731
0.7282693178676861 -0.4511166667142705 -1.786607730270623
0.6696863541100979 -0.4414510080589132 -1.736971686004405
1.900863913935945 -0.8588615970944501 -1.061705129277226
1.055831748769349 -0.8909309483322927 -0.3183604602831578
0.7585375520157238 -0.2874733314692928 -1.126556496401719
0.8454324025224262 -0.8014156317165639 -0.3697267910803139
0.7759860156405515 -0.7775907500087189 -0.3975639406183711
0.2156451869706101 -0.6509423583082381 -1.089010965564933
0.2097729065918282 -0.6829265272565604 -1.017688103287051
0.1690509408253336 -0.7492840719088679 -1.007497999157589
0.2089828529264952 -0.7182663260174638 -0.94742575623704
0.2810605487055172 -1.936415717127477 -1.359359629904087
1.050277961447595 -0.4077055907459625 -1.786667732150971
0.3787941063299023 -1.80899166416758 -1.799209938967508
0.3429749762787488 -1.742517816192116 -1.82074015010111
0.4185728034937956 -1.872002077402442 -1.774457654029362
0.3992344908676586 -1.90658579098739 -1.706043750215286
1.796424329002344 -0.9276411167677895 -1.76165714944135
0.6979764927522913 -1.076540615052605 -0.312613397341596
0.7223084453474684 -1.003798679174505 -2.178586188836794
0.1706378649551973 -0.7861998054376278 -0.938474995421183
0.8447465856454239 -1.113894433950463 -0.2715462953100023
0.291412581830119 -1.949018552061461 -1.153683154717148
0.2387502093021137 -1.892438274686923 -1.161842077045145
1.667438517339072 -0.9021624055337814 -0.5915663788595124
0.2126450165615358 -0.7569453588258337 -0.8799064295732362
0.3438596248412435 -0.80999424556354 -0.6369137547217945
1.216383097237069 -0.2750905160747718 -1.197752001160443
0.2513204104067029 -0.6915746074849826 -0.8927326587541745
0.4185497783868626 -1.551550272507246 -0.4943657809913322
1.934059984156768 -0.8952086691343638 -1.290682398400901
0.6118489931208961 -2.160858374697931 -1.109729485987321
0.5725111460473536 -2.131357647860586 -1.048848374841494
0.4039324986516533 -1.769486503135322 -1.862239582922057
0.3700477832059758 -1.701450411433281 -1.881943613444282
1.92900181710061 -0.9334829778192735 -1.441761827519478
1.303131550070951 -0.623233029533513 -0.5321738176383891
0.4296765911663284 -0.9861322385571885 -2.0278849618083
1.561355661700457 -0.4330113062512206 -1.381944288862781
1.55201568074013 -0.4180112786345147 -1.305438756638616
1.567062300902623 -0.4529367714179283 -1.457678974711807
1.143545548319317 -0.2607304835510543 -1.222787881696276
1.547239963897121 -0.793076121500748 -1.951248166607998
1.540279788770847 -0.853325579564538 -1.992123408886905
0.8503300897738842 -1.955844698064447 -0.5576256935824259
1.441047866700106 -0.9149061346714065 -0.4174203457335578
0.2860351142348604 -1.845991674030633 -1.617488865655186
0.6573835459132277 -1.046454776795209 -2.167160458970795
0.6560121708062077 -0.9697828940800123 -2.146186781266254
1.157713416623717 -0.2680014363338278 -1.1460514590076
1.841109885670012 -0.7456529072991818 -1.445366758463184
1.832838278816719 -0.7724771824532976 -1.529914915750954
1.932047369116836 -0.9263655961345151 -1.087062974259943
1.912580364468615 -0.9179651815363542 -1.011358097321229
0.1194302277264244 -1.716223610758743 -1.33504364132105
0.09282232927382561 -1.669845324725798 -1.277542277351779
1.28795686554111 -0.295480191924565 -1.172716239872958
1.597868231134148 -0.7175635829618296 -0.6507796398551865
0.1611617479567463 -1.239385122333651 -0.7057227624811532
1.916904033926965 -0.9530505017806546 -1.516660810911049
0.5039523551487519 -2.096688316426199 -1.057501613344686
0.5363996961706017 -2.096536657445067 -0.9883696388202947
0.7915204084989494 -1.867905454889558 -0.4918910970412735
0.7356053432280912 -0.4093435555768717 -1.722643848918325
0.679847310492173 -0.4010329206199257 -1.670424967776382
0.7869969830646837 -0.9600458932879947 -2.183036082248321
0.8551821688432744 -0.9979095460449963 -2.206806249354498
0.6620958461755493 -0.3384612793333801 -1.01565422224063
0.3065550230208863 -1.383100154505761 -0.5418909598282345
0.3446262242306246 -1.328445546493521 -0.4987799854442606
0.4046865926826155 -1.349189754969998 -0.4526523094802634
0.4620655350754233 -1.931160126201212 -1.746636077948288
0.4445562393745772 -1.963416664288463 -1.677222297987606
0.5747748388706206 -1.997715927930906 -0.7399956338805356
0.8262089609391936 -1.039390081525972 -0.2880020078074338
0.9008372849091474 -1.0589799852385 -0.2734355577350122
0.6194105375888975 -1.663408990353123 -0.4228091708699621
0.6493022972021865 -1.732372634524367 -0.447299705547358
0.9364782204234946 -1.609383774259246 -0.3189746049013416
0.782009560902035 -0.8469111476356659 -0.3611808139101179
0.7124851223986315 -0.8235290244599134 -0.3924116942379887
0.7200482281124558 -0.8950373799473358 -0.3580198747828669
0.265644978340186 -1.909804998120878 -1.090688774351203
0.2147738170732997 -1.850652718989389 -1.099546841784499
1.344558736440219 -0.3115761782542342 -1.22470162213124
0.3859890396400744 -1.27339248637984 -0.4610492207121848
0.4973714089592326 -0.505591735461034 -0.8104310803133852
0.786897382574734 -0.4885198146773827 -0.6378438093039219
0.2487454274560653 -1.767657663716369 -0.8405526768587439
1.539934759486408 -0.5470680437923389 -0.7870128290757656
0.2264350818158035 -0.6225000881890892 -1.161449573507652
0.2637862404019664 -0.58997849923752 -1.100464322953443
0.2769120506700963 -0.5635245900283791 -1.17321895391329
0.2356990359709105 -1.810589998170099 -1.568720708984924
0.06554020756868562 -1.247826365039564 -1.606062033415925
0.5861303027144125 -0.7609570467647125 -2.0178208538192
0.1150827411248982 -1.405417450970426 -0.8109477697598708
1.113491977868664 -0.7141981601772387 -2.08668151611112
1.179448622840433 -0.7546756080281589 -2.099971728046526
1.110729597465154 -0.7817417634457455 -2.126626020686304
1.176238290688496 -0.8237067058534595 -2.137250862079541
1.24440823772619 -0.7980632631861491 -2.107914797197033
1.241619791083678 -0.8671152066032868 -2.141638442162649
1.307969861447596 -0.8440933167821381 -2.110461695230545
1.171735202172167 -0.895340616013546 -2.169088538545245
1.303263417257696 -0.9156957558759242 -2.142340726468211
1.3704365633279 -0.8915848422374446 -2.106922007673894
0.9657474257111138 -0.5937513146218699 -0.4962331765764293
0.6523847995998451 -2.184445840603369 -1.172704182326446
0.6852532735241672 -2.187480804784135 -1.1014596390403
0.1773923837562769 -0.8261585737215945 -0.8709549432216447
0.1375092382575283 -0.8570097650006286 -0.9311452350927938
0.3888966121187993 -0.9424771059948649 -1.979371180526641
0.8570196283069393 -2.191860581548007 -0.945935437387775
1.249081693678192 -0.4979075463589696 -1.860176409778859
1.33721811383844 -1.596956253773705 -2.125160157723466
1.38061161779599 -1.531757191954219 -2.130765395085883
1.409486375217955 -1.595138971448898 -2.094511692576282
1.451660195020611 -1.528972162180327 -2.097453598117547
1.357686939854915 -0.3217502317063958 -1.147958730309267
0.06389576600627167 -1.598878518126097 -1.294639026525609
0.320313133455605 -1.964301155555311 -1.083267811687699
0.2071639972691078 -1.608279490618678 -1.742997849260746
1.115711026266461 -2.242889714204963 -1.222054091062379
0.6115930625653203 -0.4372800873677807 -1.684311402755777
0.6225361412642835 -0.3992639614601016 -1.615744758100213
0.6413251256000067 -2.006812972719571 -0.7035693467625417
1.084272897046701 -0.2566610863714879 -1.171413223156287
1.098205334706336 -0.2670048171198061 -1.094834982455611
1.488968251824621 -0.7947674198465841 -1.994092297147631
1.365653824458524 -0.962038290947188 -2.13508493082768
1.507447677699099 -0.4080350591016665 -1.433280911979009
1.511495582406602 -0.4304907125556703 -1.508412068160561
1.567664174609314 -0.4753476590897141 -1.528695417234192
1.431562576514223 -0.9432005289687744 -2.09830880410813
0.07185836467399676 -1.620999351491359 -1.219790962157597
0.04581996692392931 -1.54894199816374 -1.236803553022911
1.799376891048629 -0.702117805901821 -1.496620533304901
0.6471001541489391 -2.125599913510483 -1.579827970704021
0.8827210223274772 -0.9850956339657815 -0.2928838533113671
0.15091281748204 -1.758975009911338 -1.391405076887168
0.5557032472619587 -0.4381619119660178 -1.628839430793259
0.5682464341184246 -0.4028950908936205 -1.559842107074582
1.024483121200402 -0.2587153588235658 -1.120557592173219
0.4638898953584526 -1.107386170289622 -2.082013973005603
0.4535708552605888 -1.18593957065477 -2.085051765563944
1.176881149755473 -0.4917806528281109 -0.6224520094563156
1.298106633764485 -0.9877056895260733 -2.167787627721476
1.960663330191598 -1.5231622089919 -1.300083666038491
1.952906125047124 -1.552464697392488 -1.22797674685825
0.4479162572454933 -1.293947463117004 -0.4173703335385202
0.4644417516191883 -1.369429086705962 -0.4139892011224635
0.2227734264153871 -0.7964237782262829 -0.8138951222980852
1.500775792781058 -0.5646752545467375 -0.7212717156857185
1.431786330176742 -0.530284587478961 -0.7063362343762714
0.1036250005934201 -1.690770513726303 -1.202743099252017
1.479205589710296 -1.59139049351122 -2.05858798762446
1.521764967582205 -1.524381095093498 -2.05776007159257
0.9850457158610559 -1.641286714985766 -2.170147312152538
0.9373044491752609 -1.697061439591741 -2.142303388504684
0.9673895272789181 -1.762341944257571 -2.108162157883509
0.5079888811690506 -1.986623591134762 -1.714015887584083
0.5387432988810388 -1.955427507139467 -1.788158236807587
0.6549895339845948 -1.9631442265493 -0.6397598091904853
1.450308003746823 -0.3881538387885409 -1.483332158449328
1.452909155523652 -0.41315620109964 -1.557515451782291
1.801396604325374 -0.86807835155566 -1.710325251344435
0.8644421846508363 -1.189182340312302 -0.2610989478376143
1.458674841021782 -0.5866509973857741 -0.6587424495667271
0.504323562356209 -0.4432547193826737 -1.571662744759837
0.5165348975410711 -0.4115953029888642 -1.501672522803032
1.407988708458533 -2.122291204483769 -0.9804572977233585
0.4328979275536576 -1.726920250916333 -1.921522385101916
0.4008611197878421 -1.657451021810136 -1.939214238857554
0.3399083387409088 -1.630655285440868 -1.897595979297389
0.3726655652609492 -1.585439286253055 -1.952802954055172
0.3137001999824015 -1.557538105736069 -1.909100066769891
0.3484853001024585 -1.511329534305448 -1.962204654798825
0.6356291189901371 -0.3673894989119705 -1.547039668127396
1.838235203153394 -0.9358126604162489 -1.695699517432622
0.9824528133451258 -0.3861717579239343 -1.753480748819926
1.051149650621944 -0.3680545025102419 -1.718567874164241
1.118243598522747 -0.3923575682208671 -1.750467691884668
1.118550358433154 -0.3551083326982314 -1.68024959768631
1.185583506394375 -0.3823996082392666 -1.711333201028271
1.038233848038858 -0.2720807677697491 -1.044544048277159
0.9644071445433792 -0.2668571961854044 -1.070658493515807
1.784146652260315 -0.7223336721920016 -1.576622525626391
1.752459748999707 -0.6604427722797349 -1.543643663950193
1.801637435917165 -1.514223406741021 -0.7137506059058703
0.2440447604908673 -1.867166539479691 -1.031740662501343
0.744681455404361 -0.3712202758431917 -1.653185611346001
0.4310188191824484 -1.218046241004474 -0.4282704987883661
1.545945417765694 -1.585733957316991 -2.01761078075084
1.585036824024012 -1.517667821857549 -2.01556244139713
1.883434052831391 -1.702316853720295 -1.127714521964069
0.1566859669572603 -1.783270352569765 -1.316664628876994
1.090266211069033 -1.633872562452419 -0.3310365257881819
1.166119530242672 -1.645305578965705 -0.346596545882991
0.4530535866710453 -0.4548523298943407 -1.511896551470488
0.4678776560349125 -0.4252940853317804 -1.441588009448285
0.5336514892533706 -0.3839479452672594 -1.430202400143835
0.4865355996951546 -0.4002567718367257 -1.369543949283278
0.4223758518126096 -0.4441877799882564 -1.380449260291261
0.4426830285588406 -0.4217224991007752 -1.307915238476489
0.3811277220755136 -0.4675344775411713 -1.318882579653998
0.3709178013329902 -1.197504480409977 -0.4744358132667198
1.940897300216232 -0.9864752590024209 -1.037239615228857
1.918588032729698 -0.9790003129100284 -0.9623279719490959
1.957454072223258 -0.9957759921630289 -1.113428211469544
0.7294949687850918 -2.151927930845069 -0.913320574360484
0.6784258119550894 -2.117713768485481 -0.8709711652605024
0.8565879310034119 -0.9227867282945963 -2.184004525302722
0.9215720128188619 -0.9559651772235307 -2.202571558373189
0.925113681532954 -0.8849309186276988 -2.177963687399694
0.2773354496526579 -1.873980644739536 -1.547328274238606
1.551349134171943 -1.909096312805424 -0.7385254818721227
1.535228489418412 -1.960965977461356 -0.793866419776723
1.563734519257011 -1.85205698927393 -0.6845525900099304
1.512199552177666 -1.840602740661503 -0.6264296178681036
0.9134483414248656 -0.5033978624891307 -1.909616599747228
1.336301936496421 -2.153854701089597 -0.9855237499755567
0.8499274409176408 -1.943902285179177 -1.954256945747494
1.64603336327772 -0.488183579904207 -1.20228589721573
0.3595874991686994 -1.654379811243603 -0.5970460988418956
1.76122650400624 -0.6055503198412757 -1.322241396316492
1.799155906476908 -0.7335303334321721 -0.9424143685761825
1.168744685329485 -2.021112571208739 -0.6360695204692136
0.7937489464726641 -0.3508970737050278 -0.8638984190052033
0.8355591507832552 -0.3203088283589188 -0.9204039859441419
0.7073257145556936 -2.009674007521116 -0.6692787545332338
0.1930607928188371 -1.802072708047767 -1.040083728733
0.7922585859004398 -2.178863193706922 -1.556686602649174
0.7085498664182883 -0.7575242126663022 -0.4299241385546964
1.946217045566232 -1.006585789149839 -1.46312631145897
0.5269970150401948 -0.8125256797517934 -2.01477735017617
1.609293909998798 -1.578204277649127 -1.971833002412048
1.647151310635902 -1.509795566298757 -1.966729687451094
1.476761903526669 -2.084724401576497 -0.9744400958804291
0.4919276694148036 -2.014747682778984 -1.646261893926101
0.4304053332801855 -1.991373891110777 -1.604861478923267
1.384294852347568 -2.153292580272179 -1.05926463127047
1.297321724594273 -0.3071053366693012 -1.099835270629966
1.390289332594714 -0.3734903614878753 -1.531789088607272
1.77433839305975 -1.852480013934813 -1.443437033276338
1.730911679014735 -1.884942713065544 -1.500231629904831
1.413204745319125 -0.3407278254065143 -1.20014068837428
1.830868227689808 -0.9962703979234403 -1.745256779101173
1.868087533234119 -1.005366489495762 -1.681947311812304
0.7617767368279375 -1.703814193028903 -0.3913368791608786
0.7268115763949037 -2.208178554111767 -1.164782961513292
0.6521590005458745 -0.8737689215652438 -0.391246941945139
0.4665608898401553 -0.8000444688106407 -1.966228131047626
1.962394748508671 -1.492567158859026 -1.37230094638224
1.573004264144636 -1.793878694072128 -0.636924083488463
1.519858895286987 -1.778567062518242 -0.5789086579221653
1.001041302170779 -2.096693169176476 -0.7179195615701662
0.9223043273098073 -1.03506058610764 -2.223531936199747
0.9907286306141573 -0.9970314578718418 -2.21743007933559
0.9154238117397911 -0.4086026298342715 -1.783757748288088
1.887444299421837 -0.9114211473533469 -0.937258931439825
1.890663972980709 -0.9733972927438319 -0.8891556712753024
1.391550891675969 -0.4011863941475151 -1.605251124906673
0.4907215996195434 -1.238199225799628 -0.3894790806527739
0.4775291929332072 -1.16260406457884 -0.4018336211362569
0.6446764789342828 -1.132818040766752 -0.3226308265810652
0.6216703641651991 -1.057833075080971 -0.3444954115984441
0.760587653164695 -2.208287165228021 -1.093899272448666
0.8593866816608425 -1.229512163640601 -2.239852586634475
0.4685782424201113 -1.793418177048418 -1.899836595171491
1.430767939979372 -1.573442381426404 -0.4074894613222074
1.404245255517847 -1.645337772073843 -0.4252007399597155
0.4057707973599064 -0.4457077198854571 -1.247637188566918
0.4700251975025646 -2.060599123824303 -1.000890046017674
0.4992333084486099 -2.052748933398047 -0.9262302198151076
0.4094248407844664 -1.538309475330498 -2.003723177136142
0.3858648022342165 -1.464380434758195 -2.009525501914234
1.199876612464889 -1.464351892939979 -2.2060871329448
0.5898401724194207 -0.8247773046778815 -2.056817560060552
0.08555622999426815 -1.63993540606103 -1.141635012122346
0.980654412595288 -0.2823626796430249 -0.9983976063302671
1.329007424607913 -0.3635618001293661 -1.575547895651283
1.388699908426921 -0.5541246122936974 -0.6461210171122806
0.5567722577867212 -2.037071201103426 -1.679031575674949
1.933769624933347 -1.032670022206088 -1.534327220476574
1.358710406606277 -1.595813042749923 -0.3829704828228748
1.332470263091484 -1.667497502291035 -0.4043290475955632
1.375102650282066 -1.714273666357861 -0.4476609416973398
0.3165106922466071 -0.5330808059668599 -1.112634664439456
0.3055691196928048 -0.5616309247636844 -1.040443876887184
0.2915851357991518 -1.482550185697477 -1.916384867258676
1.562457928290325 -1.455635912509003 -2.050846396252081
0.5927973472557192 -1.012419513463978 -2.131896542693829
1.327904825048375 -0.3912675657921665 -1.643772817941365
1.188102448832714 -0.3493646789771124 -1.64175692370287
0.8959292880573229 -0.5705680765629699 -0.5236794451962673
0.8336799567499247 -0.607741463448157 -0.5017743552646847
0.1467793128740585 -0.8982150740472705 -0.8649521783819976
0.1095447326002035 -0.9302159840584165 -0.9262290934808535
0.9138349088148466 -0.3688786029207515 -1.714973827941065
1.669254696877539 -1.569087320902276 -1.921030127748942
1.704507275875466 -1.499151229579472 -1.914524764803816
1.304716109381067 -1.736327198391797 -0.4310775685157648
0.2886386438935412 -1.307016353723669 -0.54949007398436
1.724276167536435 -1.557722669729065 -1.867033865904904
1.757288301614739 -1.486984938225504 -1.858565992552753
1.122666602233135 -1.46055755819164 -2.219854844492181
1.919014741335971 -1.04182179896626 -0.9152258345966126
1.889031856859229 -1.038660161844575 -0.8438499904002595
1.857200085168109 -0.9692984914778888 -0.8182423398465308
1.85213862433271 -1.033630523805083 -0.773508641535343
1.426980468594985 -0.3544737858934066 -1.124618664521713
1.481776715861554 -0.3768418534751738 -1.175932144549844
1.606422995916147 -1.045465102061973 -2.018385727060027
0.9576883830838365 -1.002937179619029 -0.2819247498983666
0.9760181359079176 -1.079946193621091 -0.2648570798454096
1.032966666707562 -1.02699568491809 -0.2757401402392476
1.422629250007582 -1.463227685980889 -2.130862345073998
0.5293677747959806 -1.14688429726045 -2.12628332201865
0.506697297223907 -1.232243395331616 -2.119676460774035
1.978476420743784 -1.447343199107344 -1.310328731252297
0.1886130879503815 -1.829210233882838 -1.171471126838768
0.4992394762975757 -1.74927681563714 -1.957079598962176
0.5777138565963136 -1.710867989079396 -0.4694392337997283
0.5516145687790421 -1.643528434238286 -0.4474503899977529
1.839914618522687 -0.8761710217992495 -1.643440374960771
0.4791732385660075 -2.040341065826289 -1.572646066522969
0.4993388538580988 -1.684679687434365 -0.5014066617476207
0.8594517106853856 -1.594400238103407 -0.3217572222930836
0.962449564494119 -0.5362670484126504 -0.5505893633839067
1.031670416306382 -0.5616327624264501 -0.5253293638028789
1.41053846968649 -0.6066370198415116 -0.6038249148496488
1.69402365737858 -1.795702525183958 -0.7803832232482402
1.671354812290174 -1.919078161073288 -0.931225580716375
1.62379501239248 -1.976872642146164 -0.9627093029460912
1.42816989266712 -2.153584637789513 -1.264329876629686
1.875649844016378 -1.650783164476542 -0.9805371904209006
1.909313806955658 -1.606388567274383 -1.035208031817015
0.6102914188750732 -1.46788682559333 -0.3552080951246495
0.5660419776392502 -1.524501181048376 -0.3919035389702428
1.077683125609743 -1.523924312233714 -2.208608785252247
1.044718174735151 -1.455260399308831 -2.227685252688173
0.04050040823339307 -1.392903027754712 -1.007225911476841
0.6139723578110865 -0.6822334336454449 -0.5229348133791396
1.35952195898383 -2.182357009747007 -1.288136168974468
1.37438817464687 -2.176491760690561 -1.211966960980108
1.30471175975292 -2.202337241565584 -1.235698888311307
1.095190327188929 -2.14365028011877 -1.68855213880827
1.360156257383948 -0.5002138214810704 -0.6949250890472826
1.812826248047266 -1.816561935393926 -1.38535532441723
1.397561868975049 -0.3327977227431238 -1.276163771361684
0.6949014447903732 -2.202221921978651 -1.236278377928142
0.4492470900116621 -1.971130148897252 -0.8297113605023279
1.170278965203972 -0.2815180479486916 -1.068209509159715
1.053877652449241 -0.2541338496123606 -1.323128715828069
1.95429184309912 -0.9852303353234858 -1.38865101103696
1.968636377863498 -1.059536240529328 -1.409584221675519
1.97421710464329 -1.041249543935741 -1.335582008117412
0.3316448719494732 -0.9757769190014501 -1.941450016021568
0.3515486405694469 -0.9010303424219304 -1.926558210756852
0.2946247286866507 -0.9347573606749661 -1.884876212320957
0.3176615803083593 -0.8614366348726709 -1.869219502513964
0.2625747621729034 -0.8960633534735858 -1.825267649760776
1.073250639657385 -1.829403020953343 -2.061742867600279
0.8532774101393198 -0.8655739906059251 -0.3385785141187853
0.173300199143455 -1.51116756275311 -0.7516437585126989
0.4455116751420404 -1.263987726958358 -2.08207393967769
1.14550279617428 -0.3213017137401356 -0.9089011442360779
1.096504917110896 -0.4838172860723978 -0.6146647736415418
0.001441370564150279 -1.285181362557976 -1.20946686160977
0.2533657467833142 -1.361143292223883 -0.594115512824706
0.8329526407931791 -1.31961564364943 -0.2665119004577112
0.9331050632552056 -1.409063654247168 -0.2650005983070611
1.632903691363035 -2.011274680947501 -1.39104530338627
1.622042471266198 -2.001332069544016 -1.470370790296142
1.552687540050281 -2.046680744308035 -1.494614543153028
1.590360802350794 -2.001492463289253 -1.544505009579087
1.526478611291616 -2.038446770633105 -1.568075402586681
1.563455171062968 -1.990108648435791 -1.617093256152913
1.497123880099854 -2.025050565767244 -1.640082642959594
1.630548839775511 -1.942415940724109 -1.600668398474832
1.499305229227936 -0.6781691573602913 -1.9009253224999
1.71487973153413 -0.7417208464559846 -1.73020752963096
1.773345483793085 -1.051095139847855 -1.851974766335512
1.683233145538352 -1.461161349965792 -0.5509983167985981
0.4666599971755233 -0.4042265926200381 -1.23531038611548
0.4303987971194142 -0.615349578324194 -0.7277229547991684
0.3680724945899199 -0.6522033704934295 -0.7567385909512307
0.3413199692334297 -0.7134787909854816 -0.7224721719691469
1.661556435738905 -0.6325847983504326 -0.8243927266781501
1.45878886261981 -1.829635975720259 -0.5765499905807082
1.310976837925979 -0.7750307478904992 -2.073223915969465
0.6469633405010682 -0.3861938095175138 -0.8905504453557214
1.848359463713335 -1.769412894041426 -1.147547738768082
1.113847855993116 -1.713959531843889 -0.3714897732541924
1.03901800543868 -1.689343644439276 -0.352528687175795
0.3619242910514106 -0.4929487866780147 -1.390473663216508
1.533032547866844 -1.973929783389827 -1.687952019787258
1.465023076843811 -2.006538581875272 -1.70978572415514
0.2421347138266108 -0.9705241886074378 -1.839519701841928
0.2120229405807993 -0.9327007336730158 -1.77764886943632
0.1934362673836625 -1.007095640587105 -1.788936376028017
0.1660831529436473 -0.9709985297654777 -1.726173153172842
0.1868752323125666 -0.8966608734916464 -1.712579262236831
0.1435944468127439 -0.9360169657761578 -1.659858735041257
0.125636957767479 -1.011400758192191 -1.672563216793215
0.1058302897023901 -0.9772246434724039 -1.6050410315126
0.09061193844050408 -1.053390905500208 -1.61654906554653
0.07325786463636685 -1.023436575825368 -1.549696562155657
0.08739030885596577 -0.9493621565103312 -1.527056742729485
0.1667455405933885 -0.8625837188366592 -1.644456120460265
0.06001032193928024 -1.100966337553101 -1.556933824458902
0.04633533226153819 -1.068133984993589 -1.489684071421063
1.216848390437961 -1.584271257560183 -0.3328089065338679
0.04094947442914842 -1.526564017756471 -1.311110011329339
0.437619944395189 -2.056550613899697 -1.067778211302951
0.2874332152932363 -0.8237815797589947 -1.807302822153205
0.956337020438309 -2.22705327661353 -1.041528325965949
0.8935750157561576 -2.152413940433449 -1.667519823289954
1.498606036580984 -2.048348074245886 -0.9123132033482977
1.566656320248177 -0.6034085448676845 -0.7392945027976788
1.452596269625818 -1.108035771099102 -2.130342418853805
1.344210491711245 -1.782797732341609 -0.476924509632117
1.011065289877401 -0.2514852135393777 -1.196654141871867
0.330813688673857 -1.927345054235989 -0.9443967306527059
1.900032876600362 -1.577949518576425 -0.9629635314041656
1.930970935236588 -1.532748138228282 -1.019031153457542
1.919087256050397 -1.503325585047226 -0.9481643431828614
1.963203096573086 -1.055063276467359 -1.06496089988768
0.2589530741543635 -1.527925016079835 -1.86123411155772
0.7890537592421406 -0.4652628420655806 -1.832828685350281
1.435659885010368 -1.656497498662397 -2.053094171423232
1.761034505754475 -0.6395963675218408 -1.469622144849992
0.4011615047204411 -0.5919313828563397 -0.7935592571845228
1.304166509427157 -2.181320713102792 -1.049689081953562
0.2291252302275101 -1.835738133504089 -1.500325644486051
0.8957109622639525 -1.63139398341076 -2.168510983073236
0.8869016625563511 -1.663639696866015 -0.3466113974351491
0.4948125183606723 -0.4794596059566612 -1.638655515260558
1.248322681017387 -0.5096187952817927 -0.6253628911180884
1.427441647384527 -2.055227819218246 -1.660976638311995
1.394150908436759 -2.034372232622395 -1.728962693818044
0.5271172431003015 -0.8786347182088854 -2.049043006168721
0.7882805991139683 -0.8868434542671521 -2.157354516481758
0.4990600357048265 -1.310134433875698 -2.113390411131835
0.1202785332098018 -1.709538684500565 -1.127875725934635
0.9995457456961352 -1.517887429912945 -2.213450112121881
0.768884626476774 -2.222646485003809 -1.226665490556804
1.947057964728093 -1.458249499099851 -1.00563683262459
1.956235536615783 -1.486163458075519 -1.077256202476216
1.969870835317615 -1.408486426288218 -1.064979418759155
1.975555835018646 -1.434838107026079 -1.131148466765934
1.860031132894882 -1.064267127978644 -1.725236520800163
0.2342549039153937 -1.825311884798989 -0.9625096818475241
1.356972760587956 -2.079979079256198 -1.67860841825056
1.320984311457513 -2.057392012763976 -1.745062833914123
0.4406974153695471 -1.341927026490429 -2.07385073928857
0.488760643641268 -1.385984643970954 -2.098612100499399
0.6984546807922826 -2.052191111408734 -0.7346750139564984
1.597019217353404 -1.914660106103812 -0.8007840191346738
0.683052785339163 -0.660953890319843 -0.506650052943158
1.206310073407973 -0.5421949996162945 -0.5743904714687489
0.1888044717678249 -1.821374347636174 -1.374471562372531
1.932670094166375 -1.431133918758567 -0.9380432739579909
1.901967395227139 -1.472835186556782 -0.8801361093870154
1.434653664044438 -0.3624254358475847 -1.402602704439976
1.914423993390868 -1.10822565172901 -0.8708841938359291
1.723582777181647 -1.919177198315658 -1.419203551441749
0.02600363084781232 -1.476549133017632 -1.252561875741421
0.03367503704542674 -1.497309461577651 -1.178907833166974
0.6093963612679996 -1.777730287221559 -0.4957258181812324
0.08045012530458828 -1.127139835662021 -1.623273904748909
1.47413599300883 -0.6390398709830002 -0.61602619858147
0.3157395080152454 -0.5247071705188345 -1.325748865417158
0.5600037206779298 -1.278343185566081 -2.147552192362484
0.6129334108859761 -1.264267337600764 -0.3280586251450577
1.710088190927907 -0.6832288339785028 -1.667786077402496
1.657762502113492 -0.6261963491412426 -1.672158140971703
1.119079837018496 -0.3247856149925928 -1.610275358845167
0.9137481503789361 -0.2795807067861478 -1.024507175734408
0.893548891155596 -0.2675107735726798 -1.097084724830896
0.01707059937009547 -1.425322029039556 -1.19421488091982
0.8796576743823652 -1.550368878379859 -2.19620096256861
1.283407442309285 -2.099723311125097 -1.694579032540122
1.879773063103088 -1.72300503712812 -1.202401761696099
1.842753045006853 -1.7873132879706 -1.217415713880778
0.4063527859743521 -2.017744488442008 -1.008854015694837
0.7179061282192978 -0.6018405760220195 -0.5426723470609217
0.8651644196590974 -0.4802727225890581 -0.6260294200175214
0.1087059370861747 -1.663458453058767 -1.063862951004327
0.6584817202002323 -2.138523239157887 -0.9435824449562611
0.9402097145270957 -0.942049098991897 -0.3004783497300516
0.2390755622666915 -1.452149069086652 -1.866546635647011
0.2114276057601667 -1.496531045850691 -1.813361360473561
0.02815022944250889 -1.447964858086157 -1.122258313654941
1.472890361914573 -0.4005356086999958 -1.015938141676996
0.2374635243442196 -1.28623184371289 -0.6040701456074149
0.2045921779130696 -1.339639741582922 -0.65059103002051
1.733888483558125 -1.430442209452059 -1.904865102711096
1.117454492025142 -0.4813662505885024 -1.878813646137501
1.262459390447178 -2.179780467466546 -0.9918850049226355
0.1907148289149351 -1.772325947448726 -1.518762193181272
0.2418765450293799 -0.5980753771204984 -1.23440791525068
0.2571459115160251 -1.642554097625332 -1.792281369457041
0.3284758763073004 -1.907114456780239 -1.592426549772594
0.3206297917587247 -1.933543132869458 -1.516879946157842
1.730217659019152 -1.853218666507734 -1.570794966969903
0.6506715438140622 -0.7777268786854676 -2.059276052149437
0.6556173176061915 -0.8442114133077414 -2.096602735040198
1.044426818842825 -0.7428142956939878 -2.11069095447502
1.04142492153872 -0.8118637039731962 -2.147953541103004
0.5950411329447486 -0.5276863913175083 -1.810599114078326
1.584655955421337 -0.9172940682857174 -1.989921736937424
0.7225425978341171 -1.964305127818097 -0.6075160901967022
0.6686891305409741 -1.906520782327031 -0.5723470134714908
0.5519938173525298 -0.3626648454669241 -1.359209815673337
0.602875622492588 -0.3484118568581177 -1.42155479863683
1.775200208651321 -1.544897163524133 -1.808659376948395
1.8058466210467 -1.473338358966976 -1.79838964319319
1.822234350165178 -1.528330039234786 -1.74645046345835
1.849452384568979 -1.458114067766287 -1.734890896128031
1.862344420933993 -1.514472083051337 -1.681759906626939
1.888101229663226 -1.441982446732105 -1.667634943482247
1.89802669732803 -1.497060306587462 -1.61401820805424
1.713840391038404 -0.6036694905184504 -1.519608547037104
0.4518803076635546 -1.498144821440784 -0.4512578948965306
0.3648599653845732 -0.5041857010173264 -1.04910657586248
0.9864064392449923 -0.3181403825152287 -1.612564295549266
1.976585935285915 -1.064210559252254 -1.141546347648523
1.96792429589106 -1.006091689779199 -1.189739784027686
0.6797134596820334 -1.79795396018449 -0.4772367829604709
0.859825330705577 -1.68460084288967 -2.139647778307678
1.461668623757757 -1.766104724062447 -0.5285445296915104
0.5643872338402118 -1.322376596783618 -0.3527803244485554
1.449482924184383 -0.4427682495578248 -1.632546731713549
0.7698113886350648 -2.006200285333531 -0.637485239639591
1.864273884392806 -0.7939939821470521 -1.037657907049808
0.1031097630393119 -0.8901715448355009 -0.9928786556924326
1.077213412656016 -2.084564672834304 -0.7045278231082883
0.1994837645633761 -1.846872632339163 -1.304007569533303
0.1820478181149167 -1.756932833903224 -0.9780196145670101
0.4469695251597857 -1.492050532236678 -2.047225710662889
0.4704199690544597 -1.564432636169908 -2.037830634168895
1.614482640396756 -1.679448811002985 -0.5881957967954924
1.984586738648066 -1.078008606373097 -1.218252329272191
1.184967423774598 -0.4210416333712028 -1.777840012255897
1.251072744660894 -0.4153668862517907 -1.740255078834901
0.3506827325817846 -0.5407316491755743 -0.9755450988753507
0.2987746097030267 -0.5946116599582286 -0.969377342789024
0.3432775190948298 -0.5796546692111635 -0.9045253691464976
0.3694982104404493 -0.4828355359119204 -1.131990769841281
1.802376655474499 -0.8135448320195974 -1.657060915702743
0.7606217822398165 -0.3328750110904728 -0.9312841020914431
0.8022951229564271 -0.3059759921947189 -0.9859328602789807
1.632029019308182 -1.631937687042227 -1.924286973008652
1.270451681217399 -1.809343399295112 -0.4664243177639623
0.6614775643808756 -1.279985954766989 -2.190480410800357
1.359730846553958 -2.017559627302218 -1.780514784500161
1.428680149181918 -0.7092489477755619 -0.5262447725815508
0.4193916511852288 -2.014193697777482 -1.530894887037418
0.4648693137765514 -2.05868971742206 -1.49424596127234
1.194235569521382 -1.703435564455139 -0.3801329225565818
0.8047773651927306 -0.9689475371323257 -0.3103736721574251
1.741909847789132 -1.429728829990542 -0.604037674919243
0.07838589710746424 -0.9634845165843453 -0.9882055708906698
0.08771230300727284 -1.003664516935387 -0.9228150558185331
1.02323435920689 -2.05402235802502 -0.6558550577947064
0.9473929238000454 -2.064768080860944 -0.6726045809465873
1.248909555588045 -2.075733926993397 -1.756169452801159
1.355626008646653 -1.036682787714239 -2.159959289702942
1.287685404043697 -1.06451748320347 -2.189592115900852
1.23027279978471 -1.012700270026904 -2.193749583223223
0.8230531318249421 -1.579531472062732 -2.177415125369005
0.9897989750856816 -1.073714812850601 -2.234286275370331
1.058253338166369 -1.036348328964597 -2.225171529555829
1.059107379619722 -0.9603853014510051 -2.205316515118871
0.9215103590115474 -1.112347879390309 -2.237365823770075
1.911083118819548 -1.656443463123903 -1.18121583113903
0.6538033759679847 -0.9402797575548438 -0.3644373150767084
0.5889773444325253 -0.919827069342636 -0.4002669757674541
0.5864968060847422 -0.8546333879342438 -0.4298168797850528
1.820917049554347 -0.9682430253888461 -0.753302702837075
1.811953026799291 -1.033303543121079 -0.7079899190535365
0.5360318377815598 -1.175893549045258 -0.3672532762028875
0.5240369277797154 -1.103305168201258 -0.382855386797469
0.7284723454580329 -2.187265175018428 -1.031352510838533
1.333082770006885 -0.3442824074682989 -1.512166952347392
1.895700640779479 -1.07295594993784 -1.657891856310981
1.976256570325543 -1.420954447722027 -1.383032649001159
1.957478207618529 -1.468334842758055 -1.438587853196925
1.988453811953653 -1.377145551167736 -1.332420085249567
0.8132552953657877 -1.798296775766479 -0.4348331085138671
0.8862221859896572 -1.781019895594226 -0.4103140589945991
1.579660973093491 -1.962521328651186 -0.8546438156681293
1.512011076030433 -2.093949449702144 -1.090018799949477
1.570468422639472 -2.047314749041648 -1.052883360083717
1.527760437503548 -0.9146167450896 -2.030376186804652
0.365818600947069 -0.8385204535376614 -1.90459799567247
0.6126537453152758 -2.103472855439902 -0.9013641383779112
0.6236352165376582 -2.076577716973612 -0.8315279847205594
0.3120342446339921 -0.6904583830239787 -0.7878135675773925
0.01582910744745925 -1.382518670543396 -1.132329034125889
1.823548528968744 -0.9056870636222676 -0.7992046780673505
1.433852674879487 -0.871285106641871 -2.067524853474593
0.5875857738396696 -2.099035504327617 -1.580232067570255
1.476818105136636 -1.044241576197181 -2.104580578791776
1.050622533514019 -0.2901286435724413 -0.9741661039492414
0.8527938666010582 -0.3943326667802173 -1.746148938475412
0.04789163611300251 -1.517956284304586 -1.102727826395803
1.920761286009776 -1.427328504362633 -1.597495691665574
0.3075324682841265 -0.5449358748587698 -1.402883278870376
1.208947278732549 -2.112505107532431 -1.710896923607364
1.773715238324254 -0.9521739306712593 -0.6908360147389364
1.76442445883978 -1.031584293975107 -0.6434113205069208
0.5405815461688716 -1.45275093126829 -0.385230236334979
1.833945089656266 -1.394093037769796 -1.782703279419673
0.9095131495740453 -0.3130582146746533 -0.9124319019644438
0.8538652018327164 -0.3547129905875794 -1.670839389247218
0.5951176155894582 -1.089256105039451 -2.150128688036853
0.2097929929615696 -0.8273050124796919 -1.69373622069037
0.191809141053833 -0.796655619351745 -1.625907446122721
0.1522501228885174 -0.8330922367563012 -1.577884221646303
1.927633642897451 -1.473610420095658 -1.549155819915722
1.948025404922315 -1.403959791990046 -1.528467617636706
1.319836586590127 -2.19353676644482 -1.163727592793359
1.249498276413064 -2.216135928160899 -1.18418223352628
1.235742127799662 -2.221769726575588 -1.259447099644573
0.5502294599301709 -1.820651118557696 -1.937068964641938
0.5073878027946572 -1.85659669168601 -1.873998138458851
0.559104224001379 -1.763057727180299 -1.9864663490528
1.622849274271995 -1.801457877676052 -0.6950648770460875
1.169977135565435 -2.084205176594888 -1.774604133349387
0.6167698474333501 -2.086163688270696 -1.642383659931564
0.698044541473383 -2.121840257336479 -1.635639036864063
0.6731024418718156 -2.086242155344393 -1.69026928590897
0.8297772936955828 -0.554882410877809 -0.5515475910619586
0.5974666252471148 -0.940299034456727 -2.11142451448262
0.5380105268566686 -0.9858892004926121 -2.096647041150157
0.8030775314767622 -2.203706096990896 -1.022697949958416
0.8360810604675886 -2.222851104466623 -1.086625247358591
0.742392733883516 -1.913925785388441 -0.5479736130740291
1.051287462621772 -1.102159293431868 -0.2623195245124789
1.108105929262432 -1.049781262838274 -0.2762312567412787
1.270812476151484 -1.182017502068033 -0.2897713903785035
1.306158485471383 -1.114297790497794 -0.307741069498363
1.379821317875445 -1.114670718741791 -0.3348924914954
1.235418899254805 -1.112613348696284 -0.2878654720273226
1.270719093907147 -1.046442705511475 -0.3091091455144199
1.985518879936361 -1.361096448131557 -1.12189802303816
1.740670169476659 -1.616173694521149 -1.813315653508891
0.4672327628438593 -1.08750575362049 -0.4194852855568616
0.5183947827945261 -1.029613010109277 -0.4017748002756729
1.126450915962933 -1.00047907113255 -2.210077846796425
1.126221178220485 -1.062501613197177 -2.22412143448082
1.382337836157811 -1.52327238315459 -0.3673109360328669
0.2739758613714769 -1.406103188026954 -1.919716913939414
1.191839023829975 -0.3186625977517893 -1.559529371965759
0.05441484459644663 -1.174515250422516 -1.566497656328862
1.903982759264886 -0.9818283400592018 -1.58301521250003
1.985415987879288 -1.1152243687028 -1.353879064494867
1.976966551251824 -1.134968068202129 -1.429733170010343
0.475170925749812 -1.568384276819711 -0.4605787594093504
1.089567357818823 -0.9752709890467975 -0.2926590685894443
1.165037188910965 -0.9956151822966499 -0.2970828520808328
1.145470843347057 -0.9250913749709384 -0.3155094333715183
1.219826601410626 -0.9494994975823359 -0.3218967119124159
1.988519792457992 -1.40107628661764 -1.247860948660364
1.22128840238245 -1.088807332425782 -2.211794347504356
1.448652368772205 -2.13312174443115 -1.112861250888114
0.2896972542388311 -1.86818001555412 -0.9133644734528865
1.166723030016383 -1.395779942687125 -2.225167493086339
1.281384882968537 -1.322902940372489 -2.206821670386822
1.311715807075807 -1.389271271328486 -2.189913170777825
1.383282689862523 -1.387843145476664 -2.163287275120402
1.680895776315335 -1.94406296073712 -1.483789538535754
0.990308731073275 -1.134505967174867 -0.2567391039166109
0.6433150569051489 -1.841375153005081 -0.5267771575941207
1.452673392905389 -1.697458338631942 -0.4787232438713934
1.180808905747001 -0.3030262459091289 -0.9843896676226345
1.261206411638605 -0.3223127296934303 -0.9832275519660458
0.2746182131621442 -1.230765409176609 -0.5619220292439407
0.2814636599678982 -0.762634520444667 -0.7538342843453691
0.04454209054218183 -1.464588380664466 -1.047387043508323
1.700791088291433 -0.6279368043809727 -1.599183664033061
1.640439815996701 -0.5756948888052219 -1.617626793232906
1.59983777275055 -0.5768637969868942 -1.68253011291095
1.581659817950242 -0.5308178076767526 -1.630064245131292
0.3487854880324699 -0.5206456096279952 -1.459670772040294
1.722792125783164 -0.9630691939954723 -0.6213170469374518
1.713410139723949 -1.032887311778514 -0.5837357482557729
1.751522696751046 -1.103594352198939 -0.6067434240056406
0.9653095783202653 -1.455026406248656 -2.22814147615999
1.01481571601402 -1.393477393889659 -2.239542688316994
0.9266710560418874 -1.393450723064674 -2.236937057785455
1.842814334969817 -1.102400417021454 -0.7324303333135297
0.4526943535211663 -0.9121879895892658 -2.015728133840363
0.5590486289378302 -2.062201252147086 -0.8680431773497199
1.907325741397202 -1.670136511512139 -1.265662397403567
1.539247633592201 -2.046954367044176 -0.9778314373142488
0.1446017510903801 -1.729114341199129 -1.053166863004014
1.342289322205412 -0.5826613896412616 -0.5885642895725788
1.518782354126648 -1.72221836745769 -0.5373467305327175
1.311382984990629 -1.54479822551022 -0.3465982937284483
1.256257226216489 -1.50630063231017 -0.3179902254325666
0.4128565064672098 -0.8658499712452993 -1.962524577407596
1.497559105619235 -0.3966220596816112 -1.094497500363077
1.538687082721504 -0.412643786115767 -1.156990333951475
1.697256755229154 -1.101737179156819 -0.5486789941525108
1.659031072946255 -1.036133715820711 -0.5289318635644402
1.638941737133146 -1.103780927585165 -0.4947692806754858
1.598418237224999 -1.038880025554228 -0.4771326312060123
1.579543401961783 -1.10792416483072 -0.447538846857049
1.535949261202294 -1.043156655031115 -0.4314804705697008
1.554329570153944 -0.9751690462572256 -0.4643877072513564
1.114909059511527 -0.2986363479028263 -1.535837557907466
0.2937023369529225 -0.5420909265875964 -1.24710950616173
0.1421220045718012 -1.759812439934131 -1.185683430995559
1.828417580550714 -1.58035672349656 -1.702314876468948
0.4464021325141526 -1.619834101433053 -0.5038417469917467
0.4323544393882909 -0.4324056340722543 -1.153470365581207
0.5061048120529086 -0.3844840633367309 -1.166635099084739
1.275871629155013 -1.466619983052607 -2.186467098818558
1.35012583951251 -1.466990325373834 -2.161222857044213
0.1643696109922439 -1.781906008789402 -1.112894745613179
1.962171717832882 -1.50712781047073 -1.159939606457391
1.316689433253474 -1.844685047885701 -0.5110429669549287
0.7832833343224042 -1.691965009601303 -2.120460118044305
1.83900642175371 -0.8258605147052893 -1.590842956902403
1.616134880746265 -1.173234347426153 -0.466109163650514
0.2166191390760976 -1.769406044129476 -0.908632473630115
0.4423996184047265 -2.002027342436475 -0.8985221334525615
1.389013315400697 -1.825584614527205 -0.5307149438779319
1.915096994033762 -1.389428678660093 -0.8716388827092914
1.877817702967454 -1.439617410273604 -0.8101348864957867
1.285884811408247 -1.616153535388341 -0.3644484977548228
1.879431570256227 -0.8982635387035207 -1.570751578376938
1.462715059859459 -1.390986908868368 -2.125224236928457
1.495973529215991 -1.455186677406452 -2.093746813761057
1.533146511748433 -1.388397147398955 -2.08462627960202
1.595294638083563 -1.387544251594399 -2.041647568506527
1.634830497693926 -1.735069173867127 -0.6485865517287253
0.7287772200390509 -0.9677837543621692 -0.3297868755943859
0.6253213635918594 -0.3285258429745787 -1.352475837901553
1.783996311340547 -1.315632473873972 -0.6327138733313392
1.795167584559241 -1.390595816738537 -0.6601344824607515
1.847744229491288 -1.392780851306116 -0.7391738555393588
0.5312352055388896 -1.702831204174605 -2.008421695364532
1.28604431506081 -1.137424750043309 -2.201580507849221
1.543208023565748 -1.043837650885337 -2.063893192588141
0.07530830003074351 -1.587526797697588 -1.073872430199079
1.506768545057559 -1.949939693950163 -1.753259442607088
1.57574674330267 -1.920972965955629 -1.717237591095875
1.907779638092949 -1.367100094966558 -1.652770029201103
0.8734079218082931 -2.214508662781225 -1.018272821708204
0.9359803236437767 -2.206522674030282 -0.9654550033734497
1.941949625014622 -1.111405013775639 -0.9441857856013189
1.933724707554037 -1.176096334969766 -0.8997195141058705
1.121597075023088 -0.8551590082253708 -0.3393328036212918
1.208202200319973 -1.854713182037442 -0.4812517894316284
1.266440255361734 -0.3316419795897989 -1.542622857396736
0.1824967159261658 -0.7596680903542143 -1.552097664525254
1.027388505094167 -0.5080494590914549 -0.5801050346254092
0.9544197294326545 -0.481755897119867 -0.6114677476235776
1.403337468662842 -1.875813503892091 -0.58241004747004
1.534908664044057 -0.4052656217589883 -1.232779333683826
1.697739198064934 -1.384135342429981 -0.5463184517163356
1.635438432258785 -1.91698715306664 -0.86096769227665
0.9883400698159844 -0.3058225834373416 -0.9207689989062876
1.489379926577049 -0.9805647384874834 -0.4205954380899971
1.469936175626731 -1.048869376166588 -0.3905196552603982
1.427020588795397 -0.9848673080711251 -0.3855012594483548
1.339571886964614 -1.047339861069144 -0.3315122201837318
1.299724671020812 -0.9774959678341019 -0.335720680516729
1.09838566589617 -1.407571264893627 -2.232594299406418
1.095484314392206 -0.5374534773690494 -0.554902741487502
1.099958595921476 -0.5915633185907243 -0.5040312233905851
0.9623491837913143 -1.571653098789962 -2.196108714724494
1.038731368512956 -1.58796889682394 -2.190359987383939
1.194874578470155 -1.322299428053622 -2.228159849599849
1.869341010325585 -1.319133011968428 -0.7606465138345645
1.200031111653317 -1.180403205211544 -0.2726853932709735
1.038987964545553 -1.317877552508161 -2.246931580644377
1.959738125139823 -1.327525487070994 -1.51998616632617
1.733884423729787 -1.181537582243683 -1.925815470348052
1.781869356765542 -1.180660263639832 -1.869574297330465
1.734035596262949 -1.176925213624366 -0.5748320068197454
1.800367474911806 -1.108176008109986 -0.6675072013941449
1.829371471120327 -1.178123321510114 -0.6959452139174627
1.881872990389678 -1.110878873822267 -0.799505448343484
1.978563817792017 -1.182733090434511 -1.055351554370912
1.418072479655776 -1.16814984170201 -2.154718715038583
1.978425931333416 -1.319328266082477 -1.055381685300856
1.829653784301596 -1.316052904658193 -1.804356935539059
1.996075766052188 -1.1681056544091 -1.216438348613572
1.870395062283241 -1.182122447500463 -1.737652615516031
1.935711339104874 -1.182820403168201 -1.596310830959819
1.944914508738093 -1.114513815370106 -1.547959837814903
1.555550353019457 -1.180875591901516 -0.4213953768744764
1.117086127975492 -1.182122447499724 -2.24079941284918
1.734644864488473 -1.312763030590205 -1.925542541274675
1.936036329004233 -1.315227759112147 -0.9041946642611077
1.035539200373592 -0.6199791915390871 -0.4742353796781762
0.6698575181305705 -1.35665704629224 -2.187886035796092
1.009619553114431 -1.423125087237519 -0.2651471336453957
1.01408614355048 -1.623606280645264 -0.3225195810033037
0.8567192478946267 -1.393567895035252 -0.2707865985438795
1.836927271022628 -1.691963612713022 -0.927167368352779
1.726907492938445 -1.729114152479021 -0.7580090187775248
1.00068897727255 -2.191002251749281 -0.9116004026109057
1.623174830956488 -2.019689127783849 -1.111321318748376
0.8958365652438303 -1.7480822036995 -2.110850798464895
0.9213548021332283 -1.811318642299012 -2.073854547028837
0.779949915842541 -1.581493772256237 -0.3325634412028124
0.9430271238378199 -2.20803925162335 -1.530917930596784
0.7139589220180069 -2.200944252318146 -1.367836881705101
1.720049700761665 -1.85792705294825 -0.9154060270616158
0.5360058986396534 -1.75361575727137 -0.5212472003959171
0.5513627715017012 -2.119523754636806 -1.456526214625838
1.367184024932422 -1.658732425686079 -2.085531983844545
1.294042905484212 -1.659791272776053 -2.113487048247387
1.247878606007202 -1.717576797319554 -2.098485789682016
1.322483907137273 -1.717244672038741 -2.073217192537236
0.3488323521497794 -0.7864843988999453 -1.850944241947675
0.3182627499899477 -0.7516064455069269 -1.785572765166874
0.3290686021675227 -1.252443105857219 -0.508484598517112
0.6578262458128747 -1.413835502509596 -0.3247567616767378
0.3969274966092067 -1.218292791068456 -2.0470559632521
0.3861337237598343 -1.29870809745598 -2.03790590563674
0.338827625215349 -1.330321267443601 -1.995921969657603
0.2884358789360527 -1.285514191723266 -1.951723053491002
0.9060915093670598 -0.4368209588483283 -0.6756124632108642
1.110652557209151 -1.992625901932939 -0.5894980837564785
1.052058132487734 -1.960890299579819 -0.5486263957025442
0.4164966509168805 -1.144590062874247 -0.4447592988652848
0.3598729945849738 -1.119543670829561 -0.49288801150836
0.318442590419878 -1.176089211181962 -0.5219775465394428
1.428152783691522 -1.979426491554238 -1.7834999411772
1.416347791627519 -1.927098075969135 -1.856788852835798
1.458944205600498 -2.070398631276547 -1.59105175845507
0.3244935773811557 -1.435877207664066 -1.963540984577411
1.494002021210735 -2.119400781276358 -1.239788019008694
0.4919070680314452 -0.8497690436543306 -0.4873357527284837
0.7575190705509849 -1.548550974578065 -2.173076548522401
0.5429692444632128 -0.7061437415319131 -0.5461937350246399
1.19644261844221 -2.21782266368001 -1.407256444468573
1.120993766929809 -2.226996694937645 -1.42560742138376
1.143627994744396 -2.234344147384623 -1.352164566437409
1.686689047150634 -1.626492095034874 -1.871861604297617
1.291274196893372 -2.022912261367318 -1.813707351781205
1.120231950087362 -2.17036808255708 -1.622111368797561
0.03155859494135282 -1.306781219797741 -1.007312674318757
1.04447116509314 -1.77165964657784 -2.101993854794471
1.570001908838853 -1.642156736257747 -1.972018641122052
0.5893774769268101 -0.5793471246021391 -1.867749030161593
0.6715583484384675 -1.976140632080539 -1.854024721316279
0.6173791503381398 -1.994673334918593 -1.796866445912763
0.5988007010531256 -1.943570298134801 -1.848330480645721
1.287970659398937 -2.150312256151453 -0.9236401667655436
1.680267172282196 -1.443333380203694 -1.957006915393477
0.4647277026285451 -1.681869525516299 -1.975928564389783
0.8640858033544273 -2.236425810351485 -1.342149073910729
0.8892130862748028 -2.243632322375707 -1.270519933662294
1.866331550481133 -1.576495276936524 -1.627982114364024
1.880170465907684 -1.615045464937017 -1.553383848404571
1.107901659012635 -0.8502851853399697 -2.160266608705174
1.03973392633852 -0.8743615800825544 -2.175914138880949
0.9090587449792651 -1.994077394101546 -0.5881249969047737
1.852542898452138 -1.75101670320762 -1.398838400306488
0.6765794917065184 -0.5630571019067282 -0.5992245936005242
0.7114838000437186 -0.5064289824266934 -0.6467914587907557
1.255484174506526 -0.4306819038487355 -0.7367303886885701
1.093818007806793 -1.784860952822526 -0.4102846062165207
0.868381207096609 -2.115879786457344 -1.732626862865338
0.3847226133667666 -1.937228532748207 -1.636200312369791
0.1969274456521753 -1.19421143787978 -0.6567360547026151
1.231452321914468 -1.997653828116953 -1.872449657388023
1.277361516784967 -1.939727784682583 -1.918839421717649
0.8283612898794812 -1.887009196838881 -2.001504781309373
0.9023748192888987 -1.909617955988988 -1.995233839964366
0.9256848615551638 -1.963210941976212 -1.946998861149234
0.872221923428999 -1.997208045304764 -1.902190846439636
0.530205525837093 -0.5263310970636867 -0.7444345037792328
0.4969955003236807 -0.5823148901384957 -0.7011985173356338
0.4632936991282895 -0.5577826020228922 -0.7675257306939495
1.76989305494219 -1.878367092619654 -1.361442724592075
1.805290965578185 -1.839898327312469 -1.309383703085153
0.948004742267697 -0.3340968732660161 -0.8519824682099251
0.2341305987079736 -0.8594779358041325 -1.760819515622486
1.138371512003671 -2.235165445490752 -1.148499410460694
1.116169247348986 -0.5317605518002455 -1.936029737708273
0.6783232405353916 -0.4058447464262924 -0.8211340882230694
0.7530073557342412 -0.388065665203906 -0.8072090378313677
1.608007400720081 -1.862092599854356 -0.74436213564138
0.1129424563003061 -1.084797933683849 -1.681088380091994
0.5458059615469351 -0.4786026268382022 -1.69570603329187
1.084615931365483 -2.107125982566739 -1.758109431292271
0.7791289859603017 -0.5688837992725913 -1.948066412502232
0.8443983884849344 -0.5902586013847642 -1.985207062974185
0.9115548110975341 -0.5567670105369915 -1.965266014067625
0.8454321018772549 -0.534571850175384 -1.931374586632378
1.402451294815467 -0.477814321843939 -0.7583067686534437
0.6028465495860064 -0.4797398865465985 -1.748967428242578
0.7747313589857394 -0.7154652880721588 -0.4354285291517951
0.8387593647012367 -0.6728068276385571 -0.4494692389996592
0.4727600094890877 -2.09100898053089 -1.128666216277385
0.4085172233046231 -2.048536317583155 -1.138250841732649
1.252557846717981 -0.3793457366796414 -1.672108620882422
0.4269417109127017 -0.5655804781313135 -1.700748394776262
0.1730810702656004 -1.669528525327219 -0.8755658935357462
0.2165564711445086 -1.699964614190251 -0.8213415309700819
0.9420843406282574 -1.829612293012427 -0.4371683038977794
0.5827689638573323 -0.3735230626275994 -1.490221649177615
0.01225000822843836 -1.101672867937527 -1.298466644709547
0.02726703761839155 -1.025402836008895 -1.307850651020131
0.04088625681772817 -0.9971317075584802 -1.377115908983106
0.065840038208552 -0.9222818923246554 -1.391230335578061
0.06087044209892467 -0.9688632208652654 -1.447478568189762
0.088804047078611 -0.8973366227879369 -1.462956516108486
0.09542010440116588 -0.850761113569195 -1.399477503457521
0.07564530424506033 -0.8764384983112302 -1.327589953549569
0.9477573950065424 -2.013326482862488 -1.893897034303064
0.2001160446084937 -1.744362206186876 -1.590281746500284
1.060311680775001 -0.4353638026349406 -0.6731721512403461
0.2956466895464833 -1.832380991597004 -0.8441443671948572
1.296388498159759 -0.3523713600982384 -0.9237842999076891
0.4666547257613001 -0.7370111406946176 -1.922595902957941
0.1303236345178271 -1.283845977174988 -0.7575393729943597
0.3405935684803274 -1.877983992153082 -1.663302871596569
0.04725561912059395 -1.472949471668491 -1.456329052208985
0.02663715248549436 -1.426684215123284 -1.39610768359235
0.06510286151742306 -1.547745121229453 -1.443171383080279
1.575590428567687 -0.5340358843167311 -0.8549164093572843
0.9198801089851526 -1.133587024747646 -0.2600359490079127
1.51020895815689 -0.4550839773665397 -1.578322000446301
1.512041696901153 -0.4905870395634012 -1.651379192479517
1.441532001714715 -0.4058086476209634 -0.946042022591527
1.681539014113145 -0.6917766439381466 -0.7768285120712328
0.6454983419456802 -0.8068434789826865 -0.4266283510366844
0.6443085109248539 -0.7291930481686136 -0.4739563907075807
0.3285689093246047 -0.5117149871899906 -1.185847600710703
1.523541717162002 -0.6189587720508483 -0.6775569556545482
0.9250079860464335 -2.103669650453474 -0.7346124509285941
0.5051848847213479 -2.106959141664871 -1.394149336484016
1.604129316064659 -0.4785610614194653 -1.050225793674495
1.663944102946812 -0.523899115587466 -1.071238332359846
0.5059363377702467 -0.381923118681104 -1.298411008911027
0.6173229540437382 -0.3721096366354952 -0.9621340791098625
0.7659680088393863 -2.093039031840903 -0.7657333194342703
0.8109918196901712 -2.072855790854745 -0.714104249659713
0.6931085955332252 -2.089477636168706 -0.8015638682744082
0.01146450586370373 -1.147982150074951 -1.361310085479164
0.02534154981468362 -1.11528063641689 -1.428582189924188
0.8112776863011308 -0.2702062699012345 -1.183757002096123
1.95791694037916 -1.081732209731493 -1.482553404818728
1.812077449231106 -1.811912567123366 -1.092569115612182
1.769871647936625 -1.873695540500483 -1.114716895130416
0.9224234108029237 -0.2539056187500068 -1.292164635071838
0.9790232314149074 -0.2548073407869692 -1.345663714271524
1.378765850088198 -0.6361686808293212 -1.942638103494277
1.377240352992409 -0.6958837529270812 -1.99205451336407
1.546087498608467 -0.7340028575975496 -0.5900489465906938
0.3768449230345441 -1.768661071387859 -0.6646211115192358
0.3368973088634211 -1.702102795730406 -0.6534282246869383
0.7080587757812 -0.3105790133023754 -1.070393398357161
0.005535349541072487 -1.238480016738851 -1.145561745642385
1.805105457471401 -0.6819074349970936 -1.420516978445503
1.843843651534525 -0.7269432361384986 -1.36974770788459
0.1317329385021315 -1.418893722486137 -1.716462453390016
0.1073200569362912 -1.453432253500605 -1.652166430085157
0.1445541457571017 -1.495735546612927 -1.705879843368276
1.248386847265879 -0.6670532618677484 -2.023613000541152
1.401782774055009 -2.041697567793351 -0.7897983446110227
1.4513092424974 -2.047671561715023 -0.8499499440475733
0.1318189748595082 -1.482004555227955 -0.8113251842885399
1.205132637103455 -2.088704326563049 -0.7455243773982693
1.130365826156399 -2.109428498933045 -0.755644453260355
1.501557562476092 -0.3916396050140706 -1.35796964315325
0.8446135805732206 -0.7806999704739237 -2.119259767241386
0.9127679325901562 -0.8133743346896377 -2.145404151658729
0.5785688475671402 -1.588447614701148 -2.09133762299223
1.173224377787242 -0.6847237496669758 -0.4434914285950464
0.1573551629242653 -1.705284451364032 -1.537516515866064
0.665926454222452 -1.122807134508394 -2.183925500765265
1.800092348411069 -0.6792315602234252 -1.065404165352858
1.236745578701994 -0.9442010870299018 -2.172192255330397
0.1967954781642188 -1.353233583008428 -1.836690142615159
0.4570045281401131 -1.933023912076165 -0.7614979497772502
1.878766124687648 -0.8519671363384502 -0.9866752242062294
1.851394751583839 -0.84681961957609 -0.9144816580025413
1.858496777344521 -0.9081097194504186 -0.8677771339194884
0.1940659375897887 -0.6586081590361968 -1.223056030574219
1.440525764083468 -0.6268704314314498 -1.896255825470262
1.799101153173536 -0.6491286283513437 -1.269772246452728
0.4378358657840784 -1.784691261864275 -0.6190667700245513
0.462474308874106 -1.737527560815986 -0.5619716511476833
0.8695924928747709 -1.385182178444791 -2.232201435916433
0.8865526874420357 -1.332269095781521 -2.240132063490859
0.939055577081722 -1.24673014855718 -2.248135805082004
1.945693443277054 -0.9366679649748992 -1.163472852989257
1.92847470559965 -0.880312607244405 -1.214419770950517
0.06174429618000987 -1.574817752315062 -1.369036389521213
0.7181890187445479 -1.750279641724372 -0.4312797480702136
0.2195156313146314 -1.537642159598892 -0.694926907282395
0.10476970942766 -0.820775567944608 -1.130295723683362
1.940123308424073 -1.538530546497356 -1.431433978889602
0.2865612093542668 -1.712642552207216 -1.776276506115508
1.128201360336414 -0.259496976727518 -1.29968070144398
0.4826989051629952 -1.895584100101496 -1.811801341202189
0.6508836738841031 -2.160158740615541 -1.027000319012625
0.1277717398024638 -1.739001740449 -1.259754996187991
0.05109537909755513 -0.9662875160003221 -1.111843397361111
0.8548767623190607 -1.07458108270476 -2.223738902036869
0.1334289926962476 -0.8188510436329399 -0.9986729884708871
0.2974179246677287 -1.923475724679722 -1.020198181711018
1.621109294238182 -0.5008134574493269 -1.480092957458318
1.617187268327492 -0.5264229441939374 -1.559056823457238
1.601220609073166 -0.4509389081156076 -1.255928799390564
1.840885189275657 -0.7105540264970756 -1.293705149906225
0.5056681870596031 -1.312630367895602 -0.3829858733951782
0.5983837242339968 -1.912865517122274 -0.6180872898492503
0.6908917222843707 -0.3667824150409433 -1.602673744793639
0.7620610143003343 -0.3382933918605426 -1.584927006613472
1.229609609538408 -0.2852232786537088 -1.121604886557468
0.5536077176697372 -1.440768272479964 -2.124266204591593
0.1890939991455938 -0.8684249810148302 -0.8063425165008697
0.2384260213929472 -0.8383537552951923 -0.7494478605289416
0.161205077809104 -0.9417496137917364 -0.8012185633192647
0.2900439213877468 -0.8178939062587702 -0.6939004673682888
0.2575386793728217 -0.8852975093426667 -0.6880896150800521
0.205767165927774 -0.9155267609597839 -0.7427309809898238
1.328933732284484 -0.3069760910961122 -1.300084997764116
0.6220054782578746 -2.175791186562033 -1.244448386090111
1.684767618366909 -0.5284691645537559 -1.147596082416949
1.934322130175358 -0.9130894491324242 -1.366333304683948
1.718437184799661 -0.5656041317879805 -1.374299264162962
1.844304992060353 -0.7389017694965 -1.088979258608841
0.7208041129360764 -0.9344749610398935 -2.156914332467964
1.254605869126211 -0.8545257522285257 -0.3675171555457446
0.4228138864491083 -1.425167755371854 -0.4523958075574054
1.040016224607991 -0.6818583618171629 -0.4280427135604643
1.110071051144275 -1.59020505752729 -2.183886975245317
1.429634963455263 -0.4778010279163932 -1.718105272016686
1.777111104223565 -0.6764656740807603 -0.9908538854530244
1.617605637716038 -1.724652947093071 -1.877110720748121
0.314433125536286 -1.954116280750195 -1.434981955391783
0.2638846196384661 -1.906335290058206 -1.415402943805137
0.9145434846917877 -0.4537689907609732 -1.848926843543999
1.310675409869186 -0.488069736759292 -1.8182807964911
0.8685268384557417 -0.2944143859899053 -1.513763041555309
0.8482943710025836 -0.3213677603748981 -1.588566929364588
0.9125307286108388 -0.8173877350052771 -0.3526729945338851
0.4430803968554285 -2.064182049256249 -1.414158905643853
0.134327157767079 -0.7833928797832053 -1.068648612954392
0.2140557887586269 -1.121298645770411 -1.854754213078045
0.1697126367543408 -1.155243364999994 -1.799221334762267
1.713262618906279 -0.8866796719892007 -0.6506213419506149
1.370723680125699 -0.8217792039373297 -2.074130391875892
0.7560785290192596 -0.2926308783547095 -1.404747151556068
0.7328435001492761 -0.3124231324124721 -1.472658981297116
0.04584151498057354 -1.288097239037174 -1.546867286583041
0.0276327968347162 -1.244259447691553 -1.483386092704166
1.184185072361877 -0.5133267596116563 -1.900683022688304
1.772412669323237 -1.789294851671613 -1.585469419216484
1.724312583933084 -1.818894358248 -1.639525981045907
1.111609533055517 -0.2833291775301181 -1.01958551886539
1.637984761586659 -0.5778723186831161 -0.8742077382505011
0.03315846264120081 -1.041759763420779 -1.102170890866841
1.512158026345005 -0.898718304873986 -0.4662300549780035
1.618326658877867 -0.9169974744801792 -0.538114151764235
0.9528163066551902 -0.2566181924513083 -1.145279975584241
0.09676029043391088 -1.224556205469221 -1.678381419278244
1.364690501829489 -0.3372507614756207 -1.065908540533458
1.488924363112443 -1.757134519319285 -1.959765839182114
1.42057544453651 -1.768343357322862 -1.99460490152307
1.912914819264542 -1.632800454074381 -1.108400758732132
1.937179762667703 -1.560765893884383 -1.091511351686161
1.275005027227019 -1.778975213146495 -2.052843358866776
1.372056464914283 -0.7315640909460134 -0.480066109903679
0.2555011400927205 -0.6200830045712979 -1.028807716077532
1.101001662699363 -1.88617661708542 -2.014903899849985
1.11753488076488 -0.4340518610149989 -1.816051398982901
0.1224244074696331 -1.529022663887295 -1.639881305569032
0.1215913238340943 -0.9688585383947972 -0.8635317914718584
0.102048973717465 -1.048123371284636 -0.8589376249539452
0.07196395616544382 -1.066750590933778 -0.9257026743545578
0.4056130967143383 -0.4709195924805389 -1.449343742870931
0.7992921931482918 -2.225110313459164 -1.155786132367107
1.378347365392984 -0.3494275752313847 -1.464062091101075
0.4682198930629761 -0.4874485803167288 -0.8815909200290051
1.973085838459264 -1.480207808453545 -1.239592506687679
1.649438104126312 -2.007448704700355 -1.317094028471808
1.944144134890152 -1.047636810079749 -0.9899211813356829
0.3145005230472036 -1.052622995833427 -1.950808665274389
0.4558449066056866 -1.004669568014853 -0.4476857140278462
0.3353585051626065 -0.5767623496513723 -1.574041277453003
0.3879919231859483 -0.5309917156418338 -1.579352699911041
0.386272019325324 -1.60385878299527 -0.5442224660460698
0.2959315633043299 -1.111614064912895 -0.5534822547709335
1.051201770573101 -0.3346692974063893 -1.649434705026575
1.758874338784682 -1.900631089242184 -1.278087784633906
0.05692132335977107 -1.569836730893068 -1.158856842066177
0.003611440977086433 -1.331478844059354 -1.27389638924594
1.341823995601014 -2.182806407783699 -1.364142724818667
0.1258798451205825 -0.903899194257346 -1.590775860497584
0.1746862406586978 -0.9991628005793916 -0.7440969479942299
0.4409936910243053 -1.834526274840327 -1.838082460669131
1.508516198861201 -2.088891416832476 -1.444093962452613
0.4354852082190934 -1.611456338511505 -1.992073018786168
0.7899751839008006 -1.763883980737843 -2.081752866519572
1.105239590829741 -0.3410118907574649 -0.8466822025031999
1.590450650137932 -1.946205461654709 -1.65824745548974
0.7879621986238055 -0.9061910606647554 -0.3352129296821453
0.6479168828027833 -0.712528440869065 -2.01626483784006
0.1506114071022051 -1.044618384249056 -1.736166031481669
1.38609717860349 -0.434209912343866 -1.680599003199522
1.316304520238843 -0.4215712703222686 -1.712230776042677
0.5734560735784846 -1.202931448136177 -2.153241291271806
0.5381816529729528 -1.057996205598138 -2.115943622463087
1.01834199665976 -0.9573529372777657 -0.2939554048902415
1.784873175149113 -1.418970384323417 -1.846173723131896
0.9398176755115046 -2.240095148285746 -1.123154877270788
0.374239855773584 -0.7427773373936231 -0.6574213871255287
0.7191298153578378 -2.155053035366815 -1.569360208154355
0.1033713493156084 -1.327840649037478 -0.8141125189578031
0.3312510145755171 -0.885308441167973 -0.6020996516358468
0.2730434285429623 -1.436852220152396 -0.5892274286567658
1.273096045960444 -2.152640501334265 -1.582653986947094
0.592040762286557 -1.595799926479856 -0.4050197214071842
1.046726289993219 -0.6771677297661316 -2.068339687417262
0.8101826606017926 -1.244488922758154 -0.2681960451844675
0.3399910265890884 -0.6238600647950386 -0.8348651585826583
1.224182497016943 -2.043831076920922 -0.6846908550661708
0.2753795753144287 -1.009938422389734 -1.895984271545192
1.827241094940697 -1.551920494913078 -0.7761686105873117
1.243367115770197 -1.399018337406283 -2.208418479620653
1.713533443037503 -0.7967855067744174 -1.784290790485223
1.554594292629337 -0.7328880601438393 -1.901935895806608
1.773861882317725 -1.472168679770533 -0.6568905119417778
1.760539581449786 -0.8033595740601309 -1.72126624636657
1.67403686848749 -1.652202085429461 -0.6303970768340658
1.643298978327814 -0.9165697584892577 -1.939195689574796
1.626501794126838 -1.492375756029341 -0.5092237214616959
1.417738006139443 -1.183679556735138 -0.3438562161379713
1.422146902821374 -1.318704649331809 -2.153920164394242
1.786726907928948 -0.9888192658646453 -1.809325841041761
1.453951001510299 -1.491609167394256 -0.3923558439196061
1.068483248185141 -2.240527096992357 -1.369021488992139
1.505203261748498 -1.649680659518795 -2.014869292575731
0.6504758375403682 -1.920490864285827 -1.904427124106373
1.578131097603947 -1.110940731917562 -2.054006812125141
0.3128549350706853 -1.674531843746049 -1.839579827834084
1.486149828056771 -2.081498943190818 -1.518826806983465
1.642517300688307 -0.7030783262381806 -0.7132987785687634
1.24681115040369 -0.7304568088775723 -2.068021471964356
0.9186270429828493 -2.182820160944162 -1.601034170989654
0.8670903621024222 -2.196555918238646 -1.543882496588908
1.602850443979229 -0.5875088479565274 -0.8053913904812928
1.289247111925017 -0.4775597000237195 -0.6846044824942538
1.494397726813082 -0.736185056183426 -1.951117031053182
1.684623860505932 -1.913490751885582 -1.551778381910068
1.514208045058784 -1.112717065153394 -0.4033929588074964
0.7651087761484607 -0.6470935204292507 -0.4875500738742696
1.469801179440127 -2.003288151554166 -0.7897350626815318
0.4439880756628107 -2.079694799452177 -1.200429043212101
1.62875117100959 -0.4823558605915083 -1.125925666691835
0.9945476349127537 -1.820411711124483 -2.071340825435455
1.02674011549228 -1.878156768199268 -2.027627186246025
1.105089643513987 -0.6526747622077013 -0.454915899339902
0.4750756898132055 -1.024424771181858 -2.070713278020138
0.1694517901541561 -1.806922448676234 -1.244798338502771
0.03564952461437487 -1.16052024521764 -1.499041229734371
0.261022763416065 -0.7837137018373952 -1.736302099477871
1.845473926911477 -1.778176162407373 -1.328764080503154
0.9603245001389357 -1.67450705798738 -0.3454450749514023
0.9864466416611514 -1.739479625344275 -0.3780905994023425
0.5870630469932263 -1.394649855936594 -0.350800638334855
1.863806075762236 -1.620905208029167 -0.9090184900422209
1.626462515103684 -1.999887667055965 -1.037366032893781
1.440715528691526 -2.145516438131716 -1.18819278516198
0.8537509992356469 -1.149477096046299 -2.23412721512828
1.289074020185166 -2.205330846396545 -1.311475074438724
1.213679618449716 -2.173946430988828 -0.9327240738376279
0.8749820251123416 -2.07176889512875 -0.6940626033860802
1.365452695769949 -0.6700768703409278 -0.5218973349582464
1.070123585152892 -0.2524646789455085 -1.247557449280416
1.329832682102993 -0.4517018180285731 -0.7460849134250288
0.2122484166303983 -0.6356359426649123 -1.294768827921383
0.5101486081052612 -1.986192343835254 -0.7830241475866846
0.2515816742072386 -0.654214995665762 -0.9586063860891731
0.6665489259715667 -2.19105872828887 -1.306734919940179
1.956638351696586 -0.9658481443087346 -1.314037387286255
0.7117957383105478 -0.7327176488049281 -2.055827073686493
0.9793652751948394 -0.7089934113071485 -2.090765174780175
0.9796774541886981 -0.7765578162442832 -2.130590422825712
0.5314396960092045 -0.5711456977242209 -1.815338905264549
0.2218618660508319 -1.413794205317467 -0.6436399561328879
0.1767606121486066 -1.391099568716175 -0.7001201749489508
1.818828463400817 -1.057317950605431 -1.790734292759176
1.626823619536224 -0.9801217425953523 -1.98092946046232
1.564221044404195 -0.9792926753349742 -2.029982151990764
1.499337918156226 -0.9772590635292617 -2.072358817709442
1.091831242950151 -2.244743410108698 -1.295305307233799
0.1619372193322258 -1.570456457028751 -1.691540977495836
0.2258106080606367 -1.046035286174914 -1.849190437943405
1.152192247719383 -2.067453996198082 -0.6944763876900388
1.643535823864258 -1.418633008624752 -0.5033912994040888
0.0230215606256603 -1.07142294485379 -1.366719168832661
0.7258841378314109 -0.8651048182414718 -2.131315036276269
0.3481889708613484 -2.00130312737417 -1.146626922794165
0.525103440941042 -0.9582666526499548 -0.4197199796225978
0.5868982805858083 -0.9929873144260821 -0.3763344754019872
0.4338080631089006 -1.421315080289831 -2.056274043898719
1.463460636609076 -0.3638838165257438 -1.251532220261002
0.6766721826996039 -0.3178067984365167 -1.412711270410456
1.617749195030109 -1.315875241627675 -2.03361111820861
1.55842714139378 -1.314392578160586 -2.077050617334032
0.1015479589533066 -0.8538707651449275 -1.060617954303568
0.8075490392744565 -1.661158402631367 -0.358982943114197
0.3809378440230339 -2.034278499415412 -1.209143147553193
0.7837213837647339 -0.5142130964872096 -1.891748543261625
0.7189033499110544 -0.3668110944986391 -0.8745508949163933
1.311608468011163 -0.710812837770045 -2.032417642151648
1.808887535949119 -1.831997473009886 -1.166454230530392
1.95367100611032 -0.9493392066542279 -1.239290217125449
0.2841157818754908 -1.601742085402768 -1.853147819026789
1.188886078659608 -2.199889705133415 -1.000938567076014
0.1508527313622787 -1.732380981560856 -1.465075579258741
0.9089431308417937 -1.336608892712776 -0.2579276506815785
0.885142898852556 -1.261840807342676 -0.2566885475353264
0.9496796037144473 -1.290440606513346 -0.2520859681002088
0.3958687411789821 -1.720910405683945 -0.6071401304063894
1.823577673398185 -0.7337711153191503 -1.014994564953916
0.4941298307649409 -1.637640023025441 -2.020604038678055
0.7704440529215687 -2.148908736608745 -1.623185142267741
0.9991165571208133 -1.975389047889025 -1.938338542238725
0.9742885320871235 -1.92320425900897 -1.989009435711039
0.7592665369240206 -0.5415718606707925 -0.586541658307017
0.2473653023738672 -1.906878918303735 -1.295289056264557
0.9181149174089901 -0.3332113420144912 -1.640887950489898
1.439691030272951 -0.6847496148415642 -1.947971202826987
1.155571611942336 -1.117331560891864 -0.2711248502376445
0.04137301289728457 -1.501290725461185 -1.383743302245612
1.276195731338814 -2.20146799249199 -1.11426283761077
1.417117849489566 -2.111008131485925 -1.540994324948643
1.689548603095095 -1.964594660787115 -1.367801505695604
1.804998003060492 -0.6644402288536644 -1.345383276750546
1.296541856273921 -1.979456332003934 -1.8664060246112
1.040372554466718 -2.010345119282018 -0.6017366612017572
1.380721588149692 -0.3304816170798254 -1.347657645827877
1.18431977946262 -0.4637265098948186 -1.839745892445779
0.1379219411203058 -1.36135437407404 -0.7556098466061474
0.9380122430365415 -1.203909576716981 -0.2529878682442067
1.677783067202774 -1.311471838891215 -0.5173122583006232
1.332570406523365 -0.3432066600461461 -0.9909193883745482
1.402101073130938 -0.3680305222565444 -1.004145231252504
0.8435518095632062 -2.168901946180962 -1.612136958917331
0.1794771066084042 -1.081214652939858 -1.796126073391549
0.2656141861590727 -0.5964182219138491 -1.433052822384535
0.7158108693071662 -0.7992188296014366 -2.096187257296015
0.7405181013380732 -2.214612644394101 -1.296814426642028
0.1963267383720335 -1.465023365754997 -0.6951358357907235
1.964137819108625 -1.116028129749499 -1.02089346638289
0.1079853071161374 -0.8064422874992851 -1.336984730616594
0.4002257891631203 -0.5247083948635212 -0.9120310908773586
0.1036523162370694 -1.617212590882885 -1.001573465769238
0.5390753037314819 -0.5214270278733018 -1.756685157327747
0.2620450010236255 -0.5773634474364765 -1.30461215653348
0.2953002616645858 -0.6323124419620765 -0.9009149681880566
0.3719579319247888 -1.96346236125288 -1.560700208888371
1.762811114142252 -0.7442599352814323 -1.652922065763983
1.682957003841929 -1.879679601667261 -1.620234155835756
1.217024809131038 -2.222635482952235 -1.332948475115029
0.9960936724405783 -0.2502247009039235 -1.270834872746172
1.386124356855285 -2.165522502471427 -1.137188083468334
1.886121231691764 -1.547241607749394 -0.8944207692122237
1.904940089642039 -1.183880350713127 -0.8296291802029567
1.516660204735657 -2.007620161600707 -0.8511592754261077
0.1294363331555182 -0.7840342471468621 -1.408097498836314
0.02076781923372284 -1.344902474796257 -1.070841253550749
1.756031541232378 -1.11472481075918 -1.890403725658787
0.5805067693204264 -1.88827120342226 -1.895472927624323
0.9791379439202572 -0.8326296432654059 -2.15849697849545
1.167803892455586 -0.6239355728616595 -0.4884980717367189
1.866901488492503 -1.514330320676191 -0.8273757096182179
1.937492551641137 -1.5874515335447 -1.164946028160232
1.394639690290501 -1.715869875059287 -2.041975235951012
1.802565907323526 -1.117481427351334 -1.831658656176563
0.7151765219618467 -1.85720447661477 -0.5082599444972433
0.532144873077053 -0.3664320086819338 -1.229525993795281
0.3766269312138357 -2.012502241558633 -1.076805459871912
1.061294761059889 -1.108943212174057 -2.238102188477912
0.9258834134210131 -1.509309520330367 -2.212946158546735
1.625707795133954 -0.6440086500800225 -0.758813437754279
0.4333793268260336 -0.5373579584074727 -0.8363789980105993
0.1861303739324249 -1.796322079960317 -1.447859588376351
0.2328861125162544 -1.571358884812092 -1.805215949682557
1.6722981673273 -0.9719616742869237 -0.5639170140259828
1.373354463165033 -0.7575291302112175 -2.036179933122329
1.389706277214056 -2.097179664176485 -1.611131048382413
1.840985875644745 -0.7899068082408019 -0.9652948685694691
1.095947006729709 -2.041696863515745 -0.6466673817876732
0.6881211303444819 -0.3503666218514823 -0.9444000072259775
0.5862954811371415 -0.7858274011563187 -0.4668063013818653
0.4212093875407649 -1.672441387459902 -0.5524724370392119
1.991495680547338 -1.311415576343804 -1.364736404154603
1.446125651827038 -1.119892539466321 -0.3645374364235506
0.8496849526141311 -0.4820329031669111 -1.872600935359995
1.764085941747406 -0.6217294116644492 -1.396453888499013
0.02371638740971149 -1.453388104612551 -1.324186162387399
0.07436225851348677 -0.9266353712742651 -1.053454614847322
0.3679462024077494 -1.987757945286392 -1.487110124448568
1.991064369383289 -1.186501344318271 -1.367300198062569
0.2160361083619792 -1.870593108367456 -1.233727002286349
0.423145627342689 -0.4652475100795443 -1.023278668163347
0.9838057414428893 -0.3482012825751798 -1.681852774960095
0.2598119422778112 -0.7259562201760973 -0.8286928008764499
1.457320304055711 -2.11418886714354 -1.040153052432123
1.652779680222412 -1.863266541932953 -0.8052721757812742
0.8148162186958972 -2.232035761500169 -1.286231619846448
0.5291344963223995 -2.086867814537691 -1.529173670745198
1.318365363062968 -0.5300732585677663 -0.6332756024182681
0.1523633133430803 -1.437432399578916 -0.7536320487568033
1.873281070012534 -1.397089928925374 -1.714483288791419
1.262748789202493 -1.683760791961191 -0.3881330444147285
1.435310617699921 -0.7447603605462857 -1.995142652679602
1.974143920114874 -1.024461716604316 -1.263270479499794
0.9387301111512392 -0.2523823620082174 -1.21829749082238
0.3914557686677437 -1.984906284698348 -0.9506896740453067
0.8194510253467743 -2.136139994065353 -1.676799693848912
1.568591771238763 -2.004498107119014 -0.9222256812479186
1.617598702139616 -1.86664817803678 -1.738177086352261
1.621606930775702 -1.452835976776993 -2.006612443815547
1.247224737447093 -0.453407560397117 -1.801652439822161
1.16542067450719 -2.235805329925611 -1.278702821043303
0.4850465359205466 -0.5201870893836265 -1.699662145760823
0.5501391034843295 -1.354448808094159 -2.136969909452303
1.611727230777859 -0.6260413760097584 -1.736277113046724
0.1190447957067092 -0.8290177507340577 -1.466083025320256
0.9706399729322693 -1.310175661414304 -2.247755921347467
1.344365736677829 -1.109888695399428 -2.178321637001671
0.953744301164366 -1.866928882359263 -2.035658427330973
0.8342346392001699 -1.731797767141259 -0.3895392183622783
0.3699148695111834 -1.386371185477428 -2.014457734677576
1.274698456437892 -0.5665150454649756 -0.5736945402002914
0.847528176354845 -0.2843082289944566 -1.039781669670559
0.7802909113969916 -0.8227338289228602 -2.127024250199683
1.585267600350992 -0.6584648776749701 -0.6954298646381116
1.06995719079259 -0.3136265069620324 -0.9060368144811356
0.1851821834622002 -1.535294827301789 -1.754657098798198
0.3482344650596479 -0.491593361569849 -1.254588926780297
1.382921788458391 -1.928472842584417 -0.6230665858328746
1.239269910496482 -0.299961677645055 -1.049557748994861
1.979824485136302 -1.120665961637034 -1.097629777029411
1.732330805265024 -1.682253412202205 -1.776164023189948
0.8519519364741672 -0.8543578391424992 -2.156393430822542
1.989674507981496 -1.110442871750063 -1.282682965076848
1.804270850970925 -1.844176595908213 -1.239872258226407
0.7316946926284547 -0.3198035140750469 -0.9995069669449287
1.967461307584735 -1.393193512005822 -1.458600662620888
1.553219833947748 -0.5726907358990351 -1.734974201468321
0.1427007341568514 -1.694108580602383 -0.9896050357243154
0.9153254381641057 -1.730708754812826 -0.3772174889331239
0.705323671535466 -0.3384685750430499 -1.536838495949575
1.867393346442273 -1.747153237240512 -1.27162038965779
1.464847410870874 -1.710101225386184 -2.006454722375885
0.5760938037577422 -2.014929644869325 -1.734959972768381
0.6486970201990374 -2.045445335756711 -1.743814675972533
1.717978378747635 -0.5829855999054775 -1.448994567055138
1.813999033864683 -0.7908950027770911 -0.8941514726849147
0.07353418290757108 -1.12940332989569 -0.8934645418489062
0.3517871422977492 -1.973918141765164 -1.013858908419662
1.446733884348674 -0.3583677759698491 -1.323626175004493
0.01208189996905007 -1.404290672447194 -1.264567636288392
0.0535260019413254 -0.9995680617276977 -1.046356155771882
0.8538727233984698 -0.4361826245807657 -1.812448307401462
1.433109522294369 -0.8030665356970854 -2.032730234617355
0.4978433899274904 -2.018536362810668 -0.8535273048516014
1.84713038983798 -1.120986327579552 -1.765485765993147
1.67411179096206 -1.761396884684635 -0.7170398517517714
0.6548691885718602 -0.3401455501631576 -1.480324994551287
0.7933956779484459 -0.3118237594443237 -1.527740878817713
1.232776459405449 -1.753533772292668 -0.4179730412376178
1.187125154742037 -1.520271255114869 -0.3055755058653964
0.9838070137442289 -1.363612655521047 -0.2566068493785674
0.63092353767663 -2.043901224594726 -0.7667780938886771
0.2320091539074778 -1.880414028876828 -1.362996515492193
1.95797353483522 -1.383756983908743 -0.9962367721458639
1.451755015070752 -1.888442433378122 -0.6268558227659934
1.40271382891366 -1.054152106388408 -0.3558718354902346
0.8418996834428281 -2.236752494532856 -1.213615876570835
1.842687011366507 -1.477009254641608 -0.7617936919894966
0.7780337715424732 -2.180747828510857 -0.9594152909276448
1.317098274866707 -2.118950553789286 -1.629965286764266
1.224258710927091 -0.5944692195511838 -0.5288984631430291
0.8941551070977098 -0.5204015531531824 -0.574364769268791
1.302969190745368 -0.3191694925967391 -1.454363000434239
0.1383968712249842 -1.11807001450916 -1.740137253647884
1.109380885426035 -1.30986672796838 -0.2578045571633698
0.5989445016123808 -1.722382512991198 -2.034862566716733
0.755511886094655 -1.025660622264113 -0.306656263201964
0.5722284712728765 -1.818743797600565 -0.5474745471505339
0.1691790767950397 -1.460573637600468 -1.765165348905149
1.743861818364953 -0.6863771179297284 -1.609164087828371
0.1168547227254797 -0.8693727381748723 -1.524184804070569
1.411762783366902 -1.013663222595813 -2.130111548543788
0.9850058618430264 -0.9328733006152433 -2.198264642575193
0.6164860748113443 -1.323779422311055 -2.170583329215686
1.815087174359159 -1.44969205632176 -0.7061654839593314
0.2797364061453553 -0.9237514135396372 -0.6378054106738555
0.5984833851389444 -2.1238428955526 -0.975804810613377
0.1648918780527565 -1.316774769879421 -0.7039820929994161
0.7496759887330957 -1.810638539459038 -0.460682372262925
0.4355944834798668 -0.5249602273236791 -1.644669153797343
0.8821955009732769 -0.2604710166742941 -1.166606408115145
1.997108352576636 -1.317383411082042 -1.285134159060022
0.749662550842539 -2.114530308127219 -1.685796406454655
1.905846122285662 -1.543657053485171 -1.555300405630973
1.523102230465616 -1.661435746788773 -0.5036189426665073
0.22635592086194 -0.7334496550636544 -1.616947652889027
0.8781392655741292 -1.852895358004765 -2.038458717182766
1.195791163187227 -0.8809700603366203 -0.3414392017867847
1.185557342315301 -2.231656496785935 -1.206193664489633
1.114487044550107 -2.068120904582297 -1.813534295420984
0.4932079427116762 -1.461206425879633 -2.085795223925466
1.373362780741505 -0.9381701058031708 -0.376293898932733
0.9058565817439985 -1.176925967011089 -2.242873205652067
1.872479314754921 -0.9483163481590547 -1.634404499891317
0.3383886307508732 -1.057841412174455 -0.5251928027363496
1.108488551060331 -0.9168357265498717 -2.18660653488286
0.9844285612346371 -1.131107351071416 -2.24278500609423
1.552898767508938 -1.89028416231637 -1.78323460537921
1.574228399413382 -1.737146844710122 -0.5920108686337456
0.6699538436386503 -1.00891911352475 -0.3373393068355539
0.7921006891028629 -0.4220154803342128 -1.770787395894247
1.262906151879134 -1.887165188410998 -0.5254995666107
0.2213947565663896 -1.851512769051538 -1.428763149350307
1.823413163809248 -0.8486201458585452 -0.8488953074881455
0.06063680599414878 -1.035277684857691 -0.9826217714041542
0.966469121147003 -2.026033415934844 -0.6202001766308264
1.536699155921932 -0.675005924014734 -0.6324760501692778
1.707359407652669 -1.376310063888994 -1.945477128427401
1.054264030472996 -0.3079716471608751 -1.581116289910405
0.3970059633059264 -0.4986435769706932 -1.518070358831392
0.5403902868814525 -1.910553952752405 -1.843655950117794
0.4128688412896034 -2.029627305087233 -1.467849185524771
1.670460692279131 -0.5513520530595576 -1.49974688455413
0.6457960669296401 -0.3154907993948619 -1.285101677763806
1.530390517818287 -1.699482711658913 -1.968784523016598
1.885878922826152 -1.372289952237773 -0.8024916741846468
0.006815088446986417 -1.355846505096183 -1.201212206215527
1.652599855972848 -1.385765244724705 -1.995440290237293
1.568370276712927 -0.4411698028610304 -1.099172480145676
1.885469823325162 -1.124372824650337 -1.697393568118912
1.40535901212185 -1.756977772865799 -0.4893045227480102
0.6618670959037346 -0.9037257795480516 -2.125077312823171
1.38798468254079 -1.457306311543115 -0.3519510150843043
1.240689493350196 -2.134698405114211 -1.649220865911587
1.988220936169079 -1.123409608285576 -1.16401015151369
1.192818568801331 -1.061437208168063 -0.2870539615004629
1.616109472254223 -0.9762586263544641 -0.5114373563784325
0.5230948146050711 -1.383791925815289 -0.3812876398196784
1.919663820342337 -1.063180291073485 -1.595422717709693
0.5473247609320998 -1.251154745002167 -0.3583252866101903
1.165758840749507 -1.769342716525156 -0.4116640592783518
0.9993754055812784 -2.21308586717819 -0.9808063479139122
0.3670237311995846 -0.7205168411953786 -1.814790782217437
0.4812702087827258 -1.443136138746173 -0.4171627796418426
1.158868935229838 -0.5700626765718505 -0.534146734568947
1.619328580057473 -1.305577468542572 -0.4668376573695633
0.6030065535514907 -1.18643055594481 -0.3343826512896074
0.1030960580109904 -1.155914311932301 -1.682100916621803
1.987487484454691 -1.391657828713401 -1.180706944001939
0.446012057777609 -0.485702696065706 -1.58007119091337
1.47929271964086 -0.6967091078250078 -0.5687161549431327
0.492203871763619 -0.9514636150304393 -2.058095983777575
0.8701625552952675 -2.235711496410151 -1.142691641530564
0.827254700067387 -0.2749543971439677 -1.110554190804068
1.172609431549945 -0.9605320502110755 -2.191495772791892
1.03898796453703 -1.182122447501167 -0.2530684193546543
0.7163414048748937 -0.7000466805739638 -0.4644497801770181
1.867120092602129 -0.8390651877198945 -1.531487699663749
0.1052656798073892 -1.108017635186814 -0.8265717246669488
1.358637928955539 -1.974389417289837 -1.838760399511526
0.199027911624465 -1.426140521960522 -1.822204710018022
0.5338198222447577 -0.8889093812862012 -0.4423555194610833
0.6187879807543517 -1.804340650415045 -1.989853931313527
1.260329870346125 -0.3525120418580235 -1.606010847581524
0.8578353854096731 -1.791079064044781 -2.078868306072085
0.381281516917765 -0.5711403918291531 -0.8546051706375732
1.908263504269798 -1.300157931424292 -1.665381257072081
0.7238505287938621 -2.074279425945577 -1.744272088545773
1.23520963844911 -2.201716768453146 -1.052739718580401
0.1972244633818572 -1.267148260380573 -0.6539652904625664
0.7785583692627941 -0.2944519659549141 -1.055342457610762
0.3039657105096615 -1.361997227648144 -1.959219915719243
0.03947721416591066 -1.03954084776856 -1.431942087312266
0.1732879721328915 -1.710782126095506 -0.9271578477788893
0.4760227110367916 -0.8522295361391325 -2.003144381065594
0.584750446173282 -1.113443751611942 -0.3506000894635964
0.5655154168889083 -1.055925423053049 -0.3704784223103773
1.434111340967238 -0.3692485477899152 -1.060727120079359
0.8945071655437782 -2.036614758772289 -0.6416345808972982
0.8379759342054944 -2.000986813835231 -0.6098695386493271
0.4137985168724906 -0.7824421555322327 -1.911632438182835
0.8065732801701631 -0.3453779176996887 -1.629795987696709
0.4960180275803873 -1.525361081165972 -2.068644273451628
1.643370338789611 -1.962329601706863 -1.530465943918121
1.73078872493694 -1.92613304433978 -1.343765376642251
1.978540732305614 -1.192391666499152 -1.447836586934895
1.591771799733674 -0.4465125393137213 -1.185084381233138
1.242814572862178 -1.438900545439766 -0.2984971533735085
0.008189052264721997 -1.313160558017234 -1.138996451122493
0.5753916275382205 -0.3455896724403987 -1.291829289246811
0.610360998252735 -1.152048805920004 -2.16574396634414
1.208693818488924 -2.220551344443725 -1.129679686158201
1.065706616391885 -1.373904859049385 -0.2598837308344631
1.792397016891313 -1.584080068787963 -1.76038953286718
0.5061779169781865 -1.515232358786618 -0.4218746796695059
0.2762502075076435 -1.88270947496603 -0.9745640579817492
1.917205373482304 -1.12296926407582 -1.627620834946575
0.6110386751489425 -1.249487584516994 -2.171253941755737
1.022589169512691 -0.4663003000191979 -0.6292709853158728
0.5818513617745986 -0.7343943129165993 -0.5021347101265519
1.790422404572587 -0.8560267760723266 -0.7809397467513106
0.7969917425461341 -0.3798714770828909 -1.699070151548324
0.05902151958419555 -1.460082533809991 -0.9846232331526786
1.931597578905765 -1.612764845498789 -1.227030066452947
0.04865868341782953 -1.107834546161721 -0.9766162347565999
1.361915395115597 -0.9935946553063291 -0.353744709365216
0.7840301369017796 -1.959308344348877 -0.5790017206651038
0.874570638305346 -0.2976292888153734 -0.9720476592964897
0.256243612976084 -1.815384445361075 -0.89339536499804
0.3004916902028858 -0.7210793315024995 -1.730552859694895
0.570664603216402 -2.032798092902227 -0.7995577031213584
1.593784495929613 -1.687394217849419 -1.925356402639014
1.159379053047576 -0.2928899561867179 -1.491947683356124
1.512385415426702 -2.079285327576006 -1.026959574235607
0.929873882701938 -2.186194126622929 -0.9055832684821621
1.482845317739498 -0.8548686772746744 -2.031493209783922
1.168224597731792 -2.143282057860262 -1.666830480918696
1.759787052252178 -1.368643657945171 -1.889255283638184
0.5410781184720814 -2.060881144595984 -1.613128731985755
0.2899211890485575 -0.6713644304859374 -0.8487906283111994
0.7799584714226576 -0.5878386022873483 -0.5336732525721422
1.491927625046703 -1.428735418936682 -0.3979079499646538
1.933452072284018 -1.512871665215225 -1.494060886615711
0.874814650784596 -0.9236911374229146 -0.3130628865577657
1.161422849253631 -1.117022647705216 -2.227885314091335
1.753019476684082 -1.36729053935793 -0.6025398876289304
1.670079116619812 -1.97072668727654 -1.42761480714568
1.991860831931177 -1.299301415022712 -1.13260553438278
0.3028092781414605 -0.8575608532190818 -0.6500694928341836
1.670150241339301 -0.5758667644826511 -1.560552789077457
0.3790731852993682 -0.4683415759049581 -1.191178245291534
0.9922157750050664 -0.9081179495454116 -0.3102893693172379
0.6060943147024105 -1.869726087631917 -0.5711937777254298
0.07690924415698419 -1.189166278954999 -1.629740325566023
0.5951994767712881 -0.8817751315294059 -2.086986847348018
1.806354512633353 -0.7743650724921394 -1.601516451521717
0.8035658216166661 -1.916638579343095 -0.5309682774075369
1.223770488375773 -2.046643914844512 -1.811502663816726
1.547100331062645 -0.5345265703978251 -1.684487053068841
0.7077918792713995 -2.165766681890569 -0.9743447832537946
0.8963603323773959 -2.229626318171462 -1.077979373210937
1.054921083551179 -0.2884262579972412 -1.518997422427012
1.178460836464688 -1.037894498514747 -2.210813710397605
1.047939759534392 -1.74633555488759 -0.3831939107215427
1.299648886849171 -0.3198475399202735 -1.037804463718754
1.27111637633489 -1.201149408176059 -2.211306158391534
0.8198459052692635 -1.6423229373404 -2.152012868527024
0.3440851865664306 -0.5440284615959968 -1.517170253736996
0.5297722630364281 -1.579239886924094 -0.4311673111994565
0.5609531932445662 -0.3547784408933767 -1.173735581110434
1.263555707938241 -0.9159315407760233 -0.3450488116119793
1.228874368792672 -1.640912232764354 -0.3584821092176874
1.112414354168113 -0.2995938558297154 -0.960015217467643
1.207253110395115 -1.805662568303044 -0.4448383650356809
1.414110697367927 -0.6570374502671377 -0.5594149256320752
0.2309835683301955 -1.392814772063943 -1.873071158618472
0.02855629495347456 -1.408330576066518 -1.073283966183247
1.500763475757441 -0.3856932877558901 -1.297009025911038
1.618290389866408 -1.956169365840556 -0.9049756232565691
1.943231125438221 -1.367237651024237 -0.9392422532150386
0.440598563428474 -2.025336251883199 -0.956872503375366
1.635668248589275 -1.898153114072964 -1.669313031580183
0.2736886994272993 -1.89706025023732 -1.481915776141273
0.2350027563768774 -1.217113356583251 -0.6068066496505079
1.39527232290097 -1.087829334996426 -2.154135203473889
1.574522435832333 -0.9247142742694389 -0.4989253250433584
1.795367543054792 -0.9104972718078304 -0.7478761417687285
0.3268525178058673 -0.7665625253362893 -0.6903923916649506
0.8257352626895251 -2.040120070858785 -0.6623418723813825
0.5582613527743161 -2.088168020220614 -0.9300916734020845
1.14607773430542 -2.120612232258608 -1.719782541801927
0.1376845254399904 -0.9999905735772074 -0.8096509236593179
0.04419897828870945 -1.228203059246631 -1.543205218694087
1.360776320567257 -0.3307288634988739 -1.40741989745226
0.4174954525248166 -1.079894226593992 -0.4551714159489005
0.9468340992841942 -1.778318270425889 -0.4026198066184965
0.1433846772261298 -0.8100610804769187 -1.519562489745665
0.2035823937009528 -1.723934732806678 -0.8743607243426768
1.235897768676173 -1.002066187017869 -0.3103824889276784
0.4079499874351235 -0.4609416386999463 -1.086098550694622
1.297728621089769 -0.4506928610779742 -1.771982534049052
0.837973886979137 -1.733885901023618 -2.110001147377091
1.803646226141568 -1.361068263071324 -1.834650822411749
0.924609089659817 -0.8780897879263978 -0.3247978573341679
0.7775538186828562 -1.752575147078901 -0.4145744090847822
1.47334243132847 -0.9138898571936269 -2.064233943413521
1.648905804451494 -1.672375738470803 -1.882866488684939
1.336741093326232 -2.180381617783251 -1.105101824178236
1.558718697641747 -0.4927368075715008 -1.588209808105128
1.493509093773844 -1.297709615147093 -0.3815689048721047
1.590080787074699 -2.015014516982875 -0.992012687267841
1.150510675775978 -0.5249460684953774 -0.5779558549565746
1.936750495450419 -1.370372393075926 -1.578647221589609
0.4971849984260243 -2.089876956653464 -1.454410791972139
1.895662319551298 -1.019198740710242 -1.630157583176044
1.680702343831527 -1.87700579265096 -0.871175429671719
0.7566394831369059 -2.047070922619873 -0.6973214287254913
0.5460909046920842 -0.8287252345627014 -0.4648286141214146
0.5484212073932595 -0.9276522841684914 -2.08196667250921
0.4984721713619432 -1.623770138446451 -0.469765598869598
0.2279068118503856 -0.7739800264199226 -1.671042864285558
1.645956694308792 -1.359187757919613 -0.4944750284748058
1.834596361514354 -1.800364086473227 -1.273415500581699
0.3950249706575826 -0.5000422632911433 -0.9824769037584413
0.61349861967973 -2.056011863675989 -1.698287361660001
1.648887771058381 -1.818556884778529 -0.7443442580749033
0.4952902344135658 -0.3985832260499904 -1.107320185175882
0.2742873212968391 -0.5711040200170848 -1.3615408280968
0.834654839528931 -1.298245886299504 -2.235054979361037
0.5212493048285967 -1.588471044801206 -2.060083405399764
1.965377161210731 -1.138085174834996 -1.48563108564236
1.825244400876521 -1.632064730214422 -1.665930547986239
1.979396124513334 -1.443386123012637 -1.191818914461802
1.982057986875107 -1.362890771784533 -1.401055566136121
0.06059848060137296 -1.009149110008657 -1.493958263114675
0.8256597503166339 -0.5130252057456973 -0.5969505149116419
0.9822371221963825 -0.880335325054727 -2.178995429628015
1.455663538675873 -0.9943532248540373 -2.102652019219359
1.368779585350034 -0.6258318242161015 -0.5612215844208988
0.3072121606622872 -0.5593687942563694 -1.457541676101169
1.096601645610567 -1.125599818937149 -0.2624815358602856
1.94838638675939 -1.451031114502031 -1.495254464610823
0.2791421350876582 -1.175632342894635 -0.5609184444707006
0.9332021502973654 -0.2942105899496259 -0.9636354580073468
1.56564517697377 -1.688722602526956 -0.5517392952497706
## Element Component
 1 168 1745
 2097 1271 2485
 1736 1041 1738
 1519 1888 2281
 1007 1670 1671
 1251 1431 1876
 1399 1943 1944
 1994 1271 2097
 994 995 1659
 1651 1396 2337
 1396 2137 2337
 1007 1669 1670
 1595 1370 2077
 1631 1016 1632
 391 393 1700
 1389 1107 1591
 1362 1536 2194
 1585 1285 1586
 1267 1560 1618
 1058 1057 1601
 1634 925 2318
 396 1562 2350
 1224 1319 1667
 716 718 1698
 1560 1267 2506
 1659 995 2530
 248 252 2065
 1523 934 1715
 1620 1368 1806
 1115 1470 2096
 888 716 1698
 282 1428 1642
 1720 2115 2231
 1507 2270 2301
 1693 1692 1952
 1302 2143 2474
 1632 1016 1663
 1598 361 1600
 1651 237 2306
 1848 1981 2504
 1580 1154 1877
 2095 1541 2244
 1524 1382 1908
 1888 751 2281
 21 22 1673
 1049 1553 1991
 30 31 1674
 1686 440 2415
 595 1835 1940
 1848 1847 1981
 1757 991 1759
 1572 1179 1588
 1179 1572 1589
 1311 1545 2494
 1545 1311 2256
 2356 1690 2511
 1531 1891 2421
 1407 2095 2244
 712 714 1945
 1070 1790 2004
 1399 1944 1945
 1167 1845 2135
 1536 1362 2324
 1297 1762 2056
 1706 1651 2306
 1806 1368 2464
 1890 1437 2421
 1637 1764 2133
 1574 2229 2384
 1154 1580 1878
 1058 1601 2459
 1543 2132 2342
 1562 396 2341
 252 1629 2065
 1703 660 2088
 1556 2097 2485
 2229 195 2384
 1845 1542 2135
 1370 1649 2077
 2132 183 2342
 1604 1965 2155
 1689 1690 1691
 218 216 1687
 2347 1101 2391
 184 1575 1667
 1703 2088 2490
 1382 1383 1908
 170 1574 2090
 1738 1041 2321
 1642 1428 2479
 1553 1049 2231
 298 1565 2565
 1635 1634 2318
 361 1598 2466
 1575 184 1666
 1618 198 1748
 1133 1689 1691
 1565 298 2065
 2143 1391 2474
 1513 1465 2499
 1891 946 2421
 2044 1570 2348
 1547 1717 2207
 2270 1134 2301
 1818 1207 2098
 1691 1690 2356
 1835 1520 1940
 2096 1470 2559
 1970 2347 2391
 276 2344 2473
 192 1599 2293
 934 1523 2513
 1601 1057 1602
 2344 1612 2473
 1652 1228 2035
 1151 1579 1871
 1689 1133 1711
 391 1700 2341
 1591 1107 2125
 1876 1431 2444
 1179 203 1588
 1133 1233 1711
 210 211 1766
 635 2362 2431
 1319 1432 1667
 1574 170 2229
 2115 1532 2231
 1530 883 2363
 298 248 2065
 1006 1605 1606
 883 1530 2504
 1465 1513 2283
 1647 195 1754
 393 1209 1700
 1575 1224 1667
 1886 2164 2283
 1324 1948 2063
 1629 252 2200
 2320 1247 2456
 440 1686 2380
 1688 633 2305
 191 30 1674
 1505 1418 2258
 2362 1917 2431
 195 1647 2384
 191 1573 2326
 1466 1251 1876
 1764 382 2133
 1762 1297 2412
 22 192 1673
 1957 754 1958
 1692 1015 1952
 1437 1890 2284
 1573 191 2343
 1255 1626 1627
 2062 2063 2064
 1557 1560 2506
 1660 1659 2530
 1344 2062 2064
 336 218 1687
 198 1618 2515
 946 1890 2421
 1584 1648 2396
 1285 1585 2259
 1493 2334 2430
 2396 1648 2439
 1944 712 1945
 1406 1115 2096
 1579 1151 2277
 1599 192 1653
 1981 883 2504
 633 1966 2305
 1560 2398 2515
 2260 951 2291
 1389 1591 2423
 991 1757 2446
 714 888 1945
 1464 1505 2258
 2287 998 2447
 169 21 1673
 1586 1285 2419
 1041 1736 2175
 1902 2260 2291
 2098 1207 2501
 955 1609 2405
 1939 1547 2207
 1618 1748 2204
 1554 2087 2255
 1888 1519 2472
 1411 2025 2355
 1564 2320 2456
 169 1607 1654
 1551 2356 2511
 2398 1752 2515
 203 2 1588
 1233 1607 2293
 1828 2049 2364
 1398 1577 2339
 1607 169 1673
 1652 2035 2471
 31 184 1674
 1577 1398 2528
 1965 650 2155
 1032 2089 2359
 969 1681 1683
 1573 172 2326
 1416 1680 1681
 1630 1629 2200
 2467 1660 2530
 1370 1595 2529
 172 1573 2352
 1021 1421 1892
 1235 1178 1923
 1790 1426 2004
 1711 1233 2293
 2204 196 2534
 1165 1758 2447
 2319 1999 2357
 1681 969 2027
 1594 1334 2460
 656 1668 1982
 1527 1523 1715
 1693 1952 2551
 1334 1594 2433
 1142 2467 2530
 1590 2204 2534
 1790 1070 2520
 1538 396 2350
 1570 1905 2348
 440 2108 2415
 1049 1720 2231
 1954 1167 2272
 2061 536 2123
 961 1656 2010
 1578 2508 2548
 1943 1399 2339
 216 1179 1687
 1759 2287 2447
 1605 1006 2292
 2083 1120 2557
 1696 888 1698
 46 210 1766
 1766 211 2131
 1584 172 2352
 1948 1017 2063
 2399 918 2417
 2299 1686 2415
 2087 965 2255
 1663 1592 2213
 172 1584 2396
 1491 2299 2415
 1603 1216 2232
 2025 1411 2327
 1563 1324 2063
 1673 192 2293
 1380 1791 2370
 1393 1984 2030
 1416 1681 2027
 1649 1018 2077
 1567 1566 2427
 1416 1679 1680
 2427 1566 2455
 2040 1507 2301
 1167 2135 2272
 1632 1663 2213
 1360 1669 2523
 1565 1567 2565
 1609 1517 2405
 1650 2096 2559
 1178 1177 1923
 531 1274 2136
 1121 994 1659
 1120 435 2557
 1154 1878 2076
 2334 1044 2430
 1623 1410 2355
 969 1683 1713
 901 917 1672
 1203 1493 1679
 1908 1383 1909
 1418 1505 1791
 1412 2375 2485
 1965 1604 2325
 1717 1547 2549
 1468 1633 2300
 2110 1388 2160
 734 736 1713
 1835 595 2216
 1772 486 2371
 1759 991 2287
 1791 1505 2370
 2049 1828 2475
 1596 1530 2197
 1578 1639 2508
 1847 1038 1981
 1816 1485 2463
 1906 1907 1909
 2335 1051 2492
 1878 1405 2076
 486 1772 2539
 2379 2079 2476
 176 1745 1746
 1083 2302 2408
 1368 1620 2531
 32 33 1666
 2 1427 1588
 2199 1630 2200
 2012 1364 2235
 1622 45 2487
 1485 1816 2448
 2194 1536 2330
 1524 1908 2526
 1192 1050 1718
 1087 2426 2511
 1958 754 2544
 1671 1670 2400
 1758 1759 2447
 184 32 1666
 932 1513 2499
 1220 1738 2311
 45 1622 2484
 1023 1021 1892
 240 1612 2344
 1155 1418 1791
 1608 1123 2394
 230 1636 1637
 12 196 1748
 205 173 2220
 1994 2097 2328
 1603 2232 2579
 1203 1679 1718
 1123 1608 2524
 925 1634 2428
 2354 2177 2402
 802 932 1638
 1641 1621 2388
 1376 1954 2272
 2399 1558 2506
 1558 2399 2417
 2164 1465 2283
 1698 718 2438
 2025 914 2355
 1886 2283 2338
 1581 1118 2403
 1600 361 2264
 962 1678 2490
 1928 1635 2159
 1621 441 2388
 2094 1406 2096
 1626 1255 2215
 2197 1530 2363
 1007 901 1672
 1637 2133 2548
 1581 2403 2406
 2375 1556 2485
 2426 1551 2511
 1907 1908 1909
 1329 2012 2235
 2187 2470 2477
 1837 2366 2397
 1845 1302 2474
 762 2209 2378
 1462 2379 2476
 200 531 2136
 2271 1373 2305
 1580 1877 2468
 1191 1737 2516
 1558 1557 2506
 1982 1668 2454
 1714 217 2214
 222 1714 2214
 1419 2319 2357
 1392 1744 2162
 1069 1596 2556
 1641 2388 2481
 1612 240 2416
 1669 1007 1672
 689 2011 2058
 525 2274 2304
 2062 1563 2063
 1770 1589 1781
 1016 1631 2558
 1548 1641 2441
 1737 1191 2420
 649 2044 2348
 1745 1661 1746
 1639 240 2508
 12 11 222
 2088 962 2490
 43 173 205
 1406 2094 2095
 736 969 1713
 17 181 200
 1704 1192 1718
 1641 326 2441
 1618 1560 2515
 774 734 1713
 1859 1860 2528
 1239 2358 2401
 282 1642 2329
 709 712 1944
 169 1654 1705
 1427 2 1812
 1636 1401 1637
 1410 1623 2394
 2110 2160 2428
 326 1641 2481
 1954 1376 2271
 1735 1732 1741
 1758 1165 2385
 2247 617 2261
 526 1760 1762
 1385 2298 2534
 1587 1586 1706
 1630 2199 2227
 2302 1655 2408
 1638 932 2258
 555 1864 2048
 240 1639 2416
 1609 955 2414
 1118 1514 2413
 1662 1407 2244
 2071 1456 2074
 399 1712 1721
 1906 1909 2209
 1548 2441 2549
 1050 1203 1718
 1596 1069 2497
 515 511 1761
 1633 1468 2569
 435 1806 2464
 1679 1493 1680
 778 776 1931
 1916 1429 1917
 649 1902 2291
 1213 1611 2495
 222 11 1714
 1274 1701 2136
 1840 2121 2278
 2089 1417 2359
 1700 1562 2341
 441 1621 2541
 2128 2359 2382
 2314 1773 2395
 2049 1804 2364
 2061 2123 2412
 1193 1364 2012
 2470 1538 2477
 167 1385 1747
 200 181 531
 1425 2128 2382
 754 1957 2280
 1541 2095 2576
 2205 1264 2290
 2056 1762 2385
 2277 1058 2465
 1681 1680 1682
 1735 1741 1742
 599 1625 2443
 1680 1493 2430
 1594 1106 1675
 1393 2030 2581
 2400 1670 2514
 540 1701 1702
 399 249 1712
 1179 1589 1687
 199 16 200
 944 1805 2316
 1683 1684 2141
 16 17 200
 1034 1841 2070
 1760 526 1761
 1669 1672 2523
 1846 2457 2545
 237 1651 2337
 1892 1421 2135
 1984 1393 2234
 201 165 550
 435 2464 2557
 1362 1361 2324
 2403 1118 2413
 1458 1870 2150
 1635 1928 2469
 1648 186 2439
 1169 1264 2073
 2010 1656 2393
 1738 1220 2516
 2430 1044 2488
 189 12 222
 1226 1429 1916
 1499 2274 2373
 447 1615 1977
 1477 1645 2158
 184 1667 1674
 708 918 1774
 1645 1477 2349
 1208 1742 1743
 596 1459 2041
 2236 1376 2272
 1860 1577 2528
 1732 180 1741
 1902 649 2348
 1044 1998 2488
 859 933 1907
 1664 1134 2270
 776 1327 1931
 1701 1540 1702
 40 165 201
 15 16 199
 1560 1443 2398
 526 515 1761
 1590 1266 2204
 1602 1057 1869
 956 1305 1833
 2406 1253 2452
 552 555 2048
 1687 1589 1770
 852 2085 2157
 1091 1529 2104
 223 221 2214
 744 1640 2583
 706 709 1944
 2128 1032 2359
 1477 1616 2349
 2178 301 2241
 2022 1390 2391
 1742 1741 1743
 1462 1129 2037
 1907 933 1908
 1579 2277 2465
 1627 1626 2532
 1085 428 1779
 1085 1779 2170
 944 2071 2074
 14 15 167
 1055 1823 1836
 511 1116 1761
 1637 1401 1764
 294 491 1775
 843 1033 1885
 1015 1692 2310
 405 1234 2108
 1977 1615 1978
 1012 1253 1968
 2075 1858 2589
 1537 2271 2305
 1617 1331 1790
 167 15 199
 20 169 1705
 975 1169 2073
 781 778 1931
 1657 1121 1659
 2324 1361 2561
 1867 2205 2290
 256 269 1988
 1231 1610 1889
 824 827 1911
 2041 1459 2042
 1458 1080 1870
 1748 196 2204
 1601 1602 2268
 536 2061 2448
 568 1831 1941
 186 1648 2503
 1667 1432 2585
 2248 1844 2265
 1878 1580 2267
 2457 1619 2545
 606 604 1814
 221 223 1401
 852 697 2085
 1266 1618 2204
 2069 2114 2121
 381 447 1977
 2366 1502 2397
 403 1695 2471
 1425 2382 2410
 526 1762 1763
 230 225 1636
 450 1330 2102
 816 1898 1900
 1016 1015 2310
 661 1017 1948
 597 596 2041
 1120 2083 2299
 530 524 1763
 1049 1048 1720
 1741 1740 1743
 1400 452 1776
 1885 1033 1886
 949 1408 1937
 1823 1451 1836
 1384 1591 2125
 1645 1425 2410
 842 843 1885
 1471 2178 2241
 457 461 1780
 431 1308 1819
 849 859 1907
 1742 1744 2175
 1498 1721 2144
 1742 1208 1744
 524 526 1763
 1885 1886 1887
 1414 2354 2402
 1858 1316 2589
 1192 1704 1719
 531 181 1083
 1978 1615 2181
 1090 1091 2104
 173 1769 2220
 1063 1859 1938
 1883 842 1884
 1681 1682 1683
 1190 565 2047
 1439 1499 2373
 710 708 1774
 490 333 1708
 752 568 1941
 1200 1555 2051
 1611 1213 2475
 1006 1606 2512
 34 193 1727
 874 955 1972
 14 167 1747
 340 339 1844
 317 316 1694
 550 165 1094
 1780 461 2112
 822 824 1911
 1048 1192 1720
 487 1626 2116
 1426 1685 2004
 2069 683 2114
 1527 2247 2261
 2274 1499 2304
 604 607 1814
 1275 1388 2110
 1841 1456 2071
 1898 1899 1900
 999 1012 1968
 2298 1590 2534
 11 10 1714
 2414 1038 2545
 1109 911 1967
 1814 1813 2194
 917 902 1986
 1740 201 1743
 490 1708 1709
 1235 1923 2538
 1625 599 2535
 258 256 1988
 591 595 1940
 1288 520 1879
 600 605 1854
 554 548 1829
 554 1829 1830
 1455 493 1933
 19 20 1705
 344 2081 2082
 1911 2031 2032
 2072 2073 2230
 2085 1461 2157
 456 1771 1785
 343 340 1844
 1255 1491 2215
 1939 2207 2322
 1385 1702 2298
 825 972 1947
 439 450 2102
 655 661 1948
 1787 501 2145
 1678 1351 1778
 333 319 1708
 291 294 1775
 598 600 1854
 2087 1554 2560
 452 454 1776
 2102 1330 2158
 902 904 1986
 2149 1535 2198
 1709 1708 1768
 19 1705 1739
 460 501 1787
 455 457 1780
 312 431 1819
 1771 1710 1785
 1694 2149 2198
 372 368 2019
 1134 1664 2361
 2 197 1812
 1064 1063 1938
 1504 1311 2494
 2048 1864 2182
 1911 827 2031
 1192 1719 1720
 531 1083 1084
 1884 842 1885
 1683 1682 1684
 1201 1200 2051
 468 496 1802
 344 346 2081
 2358 1728 2401
 876 874 1972
 1094 165 1707
 550 1094 1114
 1674 1667 2585
 490 1710 1771
 272 264 2023
 1497 2314 2395
 964 606 1814
 252 1807 2200
 490 1709 1710
 890 990 1952
 419 487 2116
 1694 316 2149
 1065 1338 2006
 2082 2081 2139
 1640 744 2393
 210 208 211
 466 468 1802
 1668 656 2282
 911 910 1967
 972 1185 1947
 1190 2047 2182
 1415 1704 1718
 1817 1455 1933
 531 1084 1274
 1114 1094 1115
 550 1114 1208
 493 398 1933
 1304 412 1874
 211 208 249
 1069 793 1838
 946 760 1890
 213 189 214
 1105 1518 2008
 666 1451 1822
 1109 1967 2093
 271 282 1863
 1988 269 1989
 1274 1084 1275
 541 1826 2119
 1287 1482 1871
 1115 1094 1470
 1114 1115 1145
 550 1208 1743
 211 249 267
 214 189 215
 1969 1317 1970
 1275 1084 1388
 1274 1275 1276
 1145 1115 1406
 211 267 2131
 267 249 287
 214 215 219
 215 189 222
 800 842 1883
 1276 1275 1277
 1145 1406 1407
 287 249 399
 267 287 334
 219 215 221
 215 222 2214
 214 219 220
 1276 1277 1278
 267 334 2109
 334 287 404
 220 219 225
 1276 1278 1540
 1278 1277 1367
 404 287 419
 334 404 405
 220 225 226
 1276 1540 1701
 1367 1277 1634
 1278 1367 1676
 405 404 1234
 334 405 426
 226 225 227
 1367 1634 1635
 426 405 436
 226 227 229
 227 225 230
 426 436 437
 229 227 240
 226 229 231
 437 436 438
 231 229 232
 438 436 440
 437 438 439
 1002 1001 1155
 231 232 274
 450 1219 1330
 450 1119 1219
 444 1090 1166
 444 1166 1808
 374 1140 1620
 374 354 1140
 1330 1219 1331
 1330 1331 1477
 1508 1380 1657
 360 1180 1809
 244 243 245
 178 9 203
 360 363 1180
 1442 1443 1557
 1042 1205 1332
 1042 1190 1205
 439 438 450
 437 439 469
 700 963 1314
 618 619 620
 274 232 275
 1227 427 1228
 1155 1417 1418
 1364 1194 1440
 1193 1194 1364
 10 9 178
 618 617 619
 545 546 547
 1155 1001 1284
 314 313 315
 244 245 246
 542 571 1444
 534 533 535
 1356 1380 1508
 498 448 1118
 1330 1477 2158
 519 525 1826
 311 313 314
 39 179 204
 1219 1119 1426
 693 687 1329
 1442 1441 1443
 1255 1120 1491
 1658 1660 1661
 1155 1284 1417
 1166 1433 1434
 374 1620 1806
 1508 1657 1658
 1166 1280 1433
 545 544 546
 534 535 537
 1557 1443 1560
 947 563 1312
 600 604 605
 1210 1266 1590
 178 216 217
 231 274 1377
 1210 1117 1266
 535 533 536
 1059 1158 1361
 244 246 247
 271 281 282
 1059 1361 1362
 798 799 806
 264 263 265
 503 495 504
 378 448 498
 694 695 696
 1230 424 1405
 1313 1312 1425
 519 517 525
 997 989 1134
 1477 1331 1616
 1218 424 1230
 231 1377 2107
 947 1312 1313
 475 1240 1241
 245 243 253
 605 604 606
 349 350 351
 1281 1107 1389
 1425 1312 2128
 1536 1136 1537
 966 1289 1326
 696 695 697
 468 484 496
 1082 1107 1281
 1146 1252 1521
 1042 1332 1831
 1326 1289 1484
 349 351 494
 242 243 244
 1241 1240 1419
 475 476 1240
 217 216 218
 373 374 379
 302 304 2161
 806 799 807
 798 785 799
 204 179 1765
 1308 1534 1535
 1467 1230 1468
 498 1118 1581
 450 438 1119
 478 1156 1207
 262 263 264
 469 439 470
 1266 1117 1267
 620 619 621
 594 597 598
 618 620 662
 616 614 617
 275 232 276
 274 275 277
 247 246 248
 1440 1194 1441
 216 203 1179
 806 807 811
 277 275 278
 616 617 618
 532 530 533
 1241 1419 1420
 811 1182 1292
 39 38 179
 621 660 2086
 315 313 316
 385 401 1154
 496 484 500
 1442 1557 1558
 547 546 548
 431 1229 1308
 247 248 251
 555 557 1864
 1658 1659 1660
 613 612 614
 555 556 557
 307 309 2092
 613 614 616
 307 308 309
 721 677 887
 523 515 524
 966 1287 1289
 1292 1182 1365
 532 533 534
 616 618 1803
 1508 1658 2387
 678 677 721
 1658 1657 1659
 537 535 538
 811 807 812
 1124 1068 1454
 653 654 655
 1169 1168 1262
 534 537 1151
 1441 1810 2285
 1397 1398 1399
 543 544 545
 1206 493 1455
 812 813 814
 277 278 279
 1266 1267 1618
 251 248 298
 178 203 216
 1108 427 1227
 264 265 299
 798 806 808
 523 524 529
 1281 1389 1692
 524 515 526
 507 512 513
 811 812 1182
 1174 1164 1494
 1240 476 1242
 1291 1150 1685
 696 697 852
 966 520 1287
 814 815 816
 611 613 1476
 814 816 817
 187 17 1722
 247 251 284
 1642 278 1643
 543 541 544
 309 310 311
 1433 1578 2133
 1032 569 2089
 846 844 1456
 1365 1182 1453
 1150 1043 2004
 557 556 558
 598 597 600
 1429 1225 1430
 1597 1468 1598
 514 511 515
 2179 1469 2180
 1053 1045 1238
 309 311 2091
 557 558 574
 245 253 255
 697 695 698
 1215 1270 1386
 614 612 650
 265 263 1804
 1484 1289 1579
 309 308 310
 1020 1201 1214
 605 606 628
 1126 1128 2007
 573 576 935
 494 351 495
 1591 1295 1592
 817 816 818
 1065 1152 1337
 1156 1157 1285
 1268 1696 1697
 1268 1397 1696
 1292 1365 1541
 506 497 1303
 373 379 418
 507 506 512
 1102 1164 1174
 932 877 1513
 1287 520 1288
 557 574 611
 514 515 523
 284 251 285
 1433 1280 1578
 1697 1696 1698
 977 527 1963
 1054 1053 1172
 586 588 599
 1146 1143 1252
 539 538 549
 1231 1171 1517
 1118 448 1514
 315 316 317
 621 619 622
 1097 1110 1345
 686 689 2058
 498 1581 1582
 1166 1090 1280
 662 620 899
 949 1106 1408
 551 553 560
 469 470 477
 373 354 374
 539 549 1057
 1418 1417 1638
 248 246 252
 1440 1441 1442
 678 721 786
 817 818 819
 1174 1494 1523
 1370 1306 1371
 996 545 1798
 611 574 612
 621 623 660
 812 807 813
 304 306 2026
 1251 1172 1431
 279 278 1642
 1195 1306 1370
 1268 1153 1397
 496 500 505
 814 813 815
 1285 1157 1286
 1308 1229 1534
 1287 1288 1482
 1040 1039 1392
 889 895 1997
 1370 1371 1649
 311 312 313
 1467 1468 1597
 510 504 938
 563 564 1919
 1074 1603 1604
 1021 1022 1421
 786 721 787
 513 512 516
 1286 1394 1395
 611 612 613
 887 677 1866
 284 285 289
 1511 1354 1512
 537 538 539
 801 779 1932
 311 310 312
 819 818 820
 546 544 1067
 529 524 530
 696 852 956
 255 257 1328
 509 504 510
 1386 1270 1387
 573 575 576
 697 698 699
 1547 1546 1548
 1608 1340 1675
 543 545 996
 1195 422 1306
 1169 1262 1263
 1131 1545 1546
 1131 1546 1547
 1494 1164 1495
 1307 1108 1556
 808 806 2079
 299 265 390
 887 1866 1867
 1267 1117 1559
 549 538 572
 1173 1172 1251
 1395 1394 1396
 652 653 1324
 820 821 822
 819 820 833
 929 866 1363
 727 725 762
 1697 1698 1699
 576 575 577
 822 823 824
 699 698 700
 1074 1216 1603
 408 485 1378
 886 846 1841
 558 556 559
 427 397 2035
 549 572 573
 549 573 1869
 600 597 603
 255 253 256
 894 1842 1896
 913 912 1339
 1249 1247 1250
 817 819 2053
 757 760 946
 580 579 581
 1249 1250 1435
 494 495 503
 1214 1201 1215
 824 825 826
 1548 1546 1621
 1526 1523 1527
 513 516 517
 788 787 789
 418 379 434
 1395 1651 1706
 616 1803 1861
 2 9 197
 304 305 306
 1342 1340 1608
 1548 1621 1641
 1494 1495 1605
 15 14 174
 820 818 821
 514 523 1181
 786 787 788
 1063 1858 1859
 671 670 674
 642 639 2043
 621 622 623
 652 1324 1325
 824 826 827
 22 21 170
 1162 445 1311
 662 899 1082
 1435 1250 1436
 560 553 561
 671 674 2120
 702 701 704
 539 1057 1058
 864 870 1352
 678 786 1051
 36 35 171
 1242 476 1544
 704 701 705
 634 635 636
 822 821 823
 505 500 508
 1435 1436 1531
 699 700 701
 529 530 532
 289 285 290
 824 823 825
 510 938 939
 1286 1157 1335
 815 813 1080
 37 36 1749
 300 302 486
 516 512 520
 477 470 542
 1214 1215 1901
 1395 1396 1651
 636 635 637
 1 47 177
 433 478 1818
 18 17 187
 827 826 828
 1246 1247 1249
 1408 1106 1594
 26 25 182
 32 31 183
 636 637 638
 580 581 601
 716 715 717
 715 713 916
 685 684 686
 956 852 1003
 788 789 790
 1511 1512 1665
 306 354 373
 790 789 791
 628 606 629
 1113 1243 1244
 1325 1324 1563
 1531 1436 1532
 735 733 754
 704 705 706
 683 682 684
 1169 1263 1264
 1313 1425 1645
 1246 1244 1247
 714 713 715
 699 701 702
 706 705 708
 768 765 2055
 1605 1495 1606
 299 390 397
 675 658 2129
 1170 703 1839
 770 773 949
 827 828 829
 252 246 1807
 791 789 793
 1181 523 2057
 552 554 555
 289 290 367
 638 637 639
 819 833 865
 1167 926 1845
 1218 1230 1467
 1052 1117 1210
 577 575 1075
 700 698 963
 471 1130 1131
 256 253 269
 555 554 556
 558 559 562
 706 708 709
 1387 1270 2060
 686 684 688
 636 638 951
 790 791 792
 1215 1201 1269
 580 601 602
 346 348 349
 674 670 679
 794 793 795
 1047 532 2039
 638 639 641
 791 793 794
 255 256 257
 829 828 830
 849 848 858
 895 890 896
 709 708 710
 547 548 551
 623 622 624
 634 632 635
 1082 899 1107
 371 408 2103
 784 798 1805
 306 305 307
 722 848 849
 628 632 634
 796 795 797
 505 508 511
 939 938 940
 895 896 897
 560 561 563
 508 500 1018
 510 939 991
 1131 1130 1545
 513 517 518
 529 532 1047
 770 771 773
 702 704 707
 795 793 1069
 516 520 966
 1286 1335 1394
 627 631 1982
 581 579 582
 815 1080 1097
 641 639 642
 825 823 862
 600 603 604
 1669 1359 1670
 564 561 565
 830 831 832
 897 896 898
 1233 1254 1607
 829 830 841
 827 829 2031
 1360 1359 1669
 709 710 711
 306 307 354
 938 504 1796
 674 679 680
 956 1003 1031
 794 795 796
 708 705 918
 1113 1244 1245
 1248 2045 2046
 13 12 189
 641 642 643
 363 370 371
 368 290 369
 371 370 381
 299 397 421
 1141 1195 1445
 564 566 567
 830 828 831
 363 362 370
 1248 1246 2045
 542 470 571
 360 357 362
 362 357 492
 949 773 981
 397 390 403
 832 834 835
 897 898 914
 1030 973 2015
 262 261 263
 732 734 774
 832 831 834
 898 896 1015
 711 710 980
 368 369 375
 865 833 866
 367 290 368
 17 18 181
 803 797 804
 790 792 879
 259 261 262
 686 688 689
 680 681 682
 680 679 681
 360 362 363
 643 642 644
 562 559 570
 1607 1254 1654
 602 601 615
 849 858 859
 1215 1269 1270
 1052 1210 1211
 623 624 625
 796 797 803
 682 681 894
 689 688 691
 375 369 376
 631 646 656
 939 940 941
 371 381 389
 505 511 514
 835 836 837
 511 508 1116
 401 400 402
 714 715 716
 835 834 836
 257 256 258
 560 563 947
 895 897 1086
 401 402 406
 367 368 372
 825 862 972
 835 837 839
 375 376 384
 641 643 649
 643 644 652
 1097 1080 1098
 347 345 357
 631 645 646
 712 711 713
 829 841 970
 889 890 895
 421 397 427
 1031 1003 1171
 796 803 805
 803 804 809
 263 261 268
 809 804 810
 949 981 1106
 981 773 1068
 859 858 867
 1245 1244 1246
 371 389 408
 477 542 993
 646 645 647
 894 681 1055
 980 710 1000
 898 1015 1016
 367 372 1104
 403 390 1213
 879 792 880
 409 443 444
 839 837 840
 408 389 409
 810 804 850
 406 402 407
 865 866 928
 1025 1023 1026
 615 601 1081
 406 407 471
 602 615 651
 890 878 990
 851 850 863
 607 603 608
 689 691 900
 277 1646 2105
 864 863 869
 900 1021 1023
 800 801 842
 839 840 854
 604 603 607
 842 801 843
 941 940 989
 652 644 653
 1024 1023 1025
 1031 1171 1231
 900 1023 1024
 879 880 901
 810 850 851
 867 858 925
 980 1000 1052
 809 810 853
 894 1055 1056
 562 570 1066
 406 471 481
 972 862 973
 384 376 385
 385 376 400
 859 867 868
 407 402 1096
 444 443 482
 375 384 423
 854 840 855
 385 400 401
 1076 911 1077
 1138 1139 1357
 563 561 564
 646 647 648
 1021 691 1022
 20 21 169
 625 624 626
 941 989 997
 970 982 1184
 1231 1517 1609
 900 691 1021
 421 427 1108
 868 867 922
 567 566 568
 870 869 871
 24 23 194
 260 270 271
 408 409 485
 446 1162 1163
 648 663 924
 970 841 971
 874 873 955
 1143 1129 1144
 24 25 186
 839 854 1186
 936 937 999
 1009 1132 1133
 446 1163 1271
 1011 1148 1191
 1245 1246 1248
 1159 1079 1294
 648 647 663
 41 40 190
 471 407 1130
 1024 1025 1103
 869 863 883
 1138 1026 1139
 271 270 280
 409 389 443
 1056 1055 1225
 1097 1098 1110
 607 608 936
 1090 482 1091
 651 615 1101
 809 853 957
 999 937 1012
 1128 1127 1129
 663 942 943
 851 863 864
 941 997 998
 1050 1202 1203
 1078 1077 1079
 444 482 1090
 920 1036 1037
 984 1011 1220
 1193 1103 1194
 872 871 873
 1128 1129 1143
 20 19 195
 12 13 196
 936 608 937
 836 838 860
 879 901 1007
 953 891 1044
 981 1068 1123
 982 983 984
 1012 1093 1253
 1056 1225 1226
 1290 1150 1291
 855 840 856
 1077 911 1109
 1272 1273 1358
 836 834 838
 928 866 929
 988 987 1063
 1005 1004 1019
 1046 1053 1054
 280 270 1322
 648 924 952
 1095 1043 1150
 859 868 933
 909 910 911
 943 1005 1061
 1046 1045 1053
 1076 1077 1078
 1100 1112 1113
 875 874 876
 421 1108 1307
 1091 482 1279
 1066 570 1256
 881 857 882
 1013 931 1014
 936 999 1059
 1012 937 1092
 958 967 968
 984 983 992
 984 992 1011
 1012 1092 1093
 1024 1103 1193
 260 258 270
 474 398 493
 736 738 969
 972 973 986
 1013 1014 1196
 1046 1054 1165
 1123 1068 1124
 663 647 942
 873 871 1038
 1009 922 1010
 1095 1150 1290
 271 280 281
 417 445 446
 1256 570 1257
 855 857 881
 889 878 890
 1100 1113 1934
 602 651 1071
 868 922 1008
 875 876 891
 892 876 893
 892 893 919
 910 908 912
 909 911 1076
 1039 929 1041
 976 977 978
 978 1043 1095
 1148 992 1149
 1037 1178 1187
 1074 1066 1216
 1071 1072 1073
 1294 1079 1295
 726 728 847
 958 853 967
 857 856 884
 901 880 902
 919 987 988
 676 677 678
 909 908 910
 920 921 1036
 1062 921 1221
 928 1039 1040
 998 997 1045
 1020 1019 1200
 1253 1093 1293
 1160 493 1206
 562 1066 1074
 892 919 1088
 978 977 1043
 1052 1000 1117
 1009 1010 1132
 1073 1072 1102
 423 384 424
 860 861 920
 982 971 983
 1048 979 1050
 988 1064 1065
 998 1045 1046
 1037 1036 1177
 1037 1177 1178
 1110 1098 1111
 1187 1178 1188
 434 379 435
 446 445 1162
 626 624 934
 625 626 627
 736 737 738
 855 856 857
 881 930 954
 943 1004 1005
 1011 992 1148
 1060 1121 1122
 968 1048 1049
 1059 999 1158
 1013 1196 1197
 1249 1435 1437
 29 30 191
 738 737 739
 957 853 958
 989 940 1175
 986 1028 1029
 910 912 913
 1050 979 1202
 1062 1221 1222
 1065 1064 1152
 1073 1102 1258
 474 493 1160
 742 741 743
 875 891 953
 906 908 909
 972 986 1185
 976 978 1089
 988 1063 1064
 1005 1019 1020
 627 630 631
 740 739 741
 943 942 1004
 968 979 1048
 1110 1111 1147
 881 882 930
 928 929 1039
 423 424 1218
 920 861 921
 864 869 870
 891 876 892
 957 958 959
 1060 994 1121
 22 23 192
 259 260 261
 1071 651 1072
 930 882 931
 1036 921 1062
 970 971 982
 1020 1200 1201
 1060 1122 1137
 1100 1099 1112
 712 713 714
 930 931 1013
 1028 973 1030
 1043 977 1070
 993 1002 1356
 1138 1357 1427
 475 416 476
 870 871 872
 919 893 987
 901 902 917
 907 1099 1100
 1128 1143 1146
 34 33 193
 734 735 736
 736 735 737
 738 739 740
 1196 1014 1198
 10 11 198
 976 527 977
 860 838 861
 983 971 985
 986 973 1028
 27 28 172
 417 415 445
 740 741 742
 1008 922 1009
 1152 1064 1153
 625 627 962
 739 737 961
 1073 1258 1349
 431 474 1229
 1078 1079 1159
 1271 1163 1272
 968 967 979
 1028 1030 1105
 904 905 906
 931 882 1087
 1272 1163 1273
 259 258 260
 906 905 907
 1025 1026 1138
 904 903 905
 257 258 259
 902 903 904
 1126 1127 1128
 907 905 1099
 872 873 874
 902 880 903
 907 1100 2013
 1565 1273 1566
 734 733 735
 431 398 474
 728 729 730
 872 874 875
 627 626 630
 906 907 908
 1135 927 1136
 885 994 1060
 645 630 1006
 468 483 484
 414 416 475
 31 32 184
 1356 1002 1380
 1126 1125 1127
 631 630 645
 732 733 734
 728 727 729
 835 839 2017
 416 415 417
 1035 1126 1142
 993 542 1001
 1191 1148 1960
 726 727 728
 843 845 1033
 596 593 950
 312 398 431
 732 731 733
 1113 1112 1243
 347 357 360
 746 748 945
 629 606 964
 468 467 483
 676 675 677
 800 779 801
 661 676 1017
 714 716 888
 1156 479 1157
 521 527 976
 434 1120 1255
 915 927 1135
 927 926 1167
 995 886 1034
 1501 1500 1530
 731 729 960
 1035 1125 1126
 1054 1172 1173
 1191 1960 1961
 1525 1550 1551
 46 47 176
 766 768 770
 993 1001 1002
 730 731 732
 885 886 994
 176 47 1745
 994 886 995
 1353 509 1354
 1014 931 2002
 726 725 727
 414 415 416
 480 472 1217
 730 729 731
 591 589 595
 312 310 398
 1319 1320 1321
 1141 422 1195
 381 383 447
 709 711 712
 381 370 383
 845 846 885
 984 1220 2000
 1525 1524 1550
 37 38 180
 885 846 886
 39 40 201
 518 519 521
 995 1034 1035
 1035 1034 1125
 746 747 748
 722 719 848
 843 844 845
 479 442 1239
 478 479 1156
 1202 979 2009
 434 435 1120
 1310 1359 1360
 1539 1599 1653
 661 675 676
 528 522 541
 1203 1492 1493
 1010 922 1995
 466 467 468
 567 569 1032
 653 644 654
 502 366 2101
 521 522 527
 43 42 173
 877 878 889
 1009 1133 1691
 467 465 1204
 730 732 2030
 1296 1251 1466
 594 593 596
 724 725 726
 527 522 528
 845 844 846
 528 541 543
 1475 1257 1895
 414 413 415
 1296 1466 1485
 1213 390 2049
 587 585 948
 913 1339 1340
 777 779 800
 975 1168 1169
 1168 703 1170
 639 637 640
 518 517 519
 594 596 597
 503 509 1353
 1409 1524 1525
 685 686 687
 770 768 771
 1409 1382 1524
 1576 1575 1666
 915 926 927
 430 472 480
 1501 1530 1596
 740 742 769
 1042 565 1190
 567 568 569
 1152 1153 1268
 1040 1392 1662
 1299 1689 1711
 1319 1318 1320
 1436 1250 1553
 628 629 632
 1203 1202 1492
 785 783 923
 592 591 593
 843 801 844
 277 279 1646
 764 765 766
 765 761 1027
 43 44 185
 484 483 1595
 1539 1299 1599
 1584 1232 1648
 521 519 522
 782 784 944
 865 928 2185
 784 785 798
 654 644 1959
 1568 1404 1573
 590 589 591
 1162 1311 1504
 1223 1575 1576
 1077 1109 1987
 1473 838 2016
 592 593 594
 1381 1382 1409
 705 701 1927
 746 745 747
 1319 1321 1432
 1063 987 1858
 1689 1298 1690
 1175 940 2028
 417 446 1994
 1344 1161 2062
 1655 1254 2034
 1654 1254 1655
 478 442 479
 578 579 580
 884 856 1474
 339 337 2127
 564 565 566
 692 694 1189
 1223 1224 1575
 588 587 589
 1358 1273 1565
 761 758 1973
 1171 1003 1212
 34 35 175
 1350 1159 1351
 861 838 1473
 692 687 693
 1510 1354 1511
 1222 1422 1423
 780 778 781
 1325 1563 1569
 552 548 554
 1341 1340 1342
 1583 1375 1668
 1102 1072 1164
 590 592 974
 1325 1569 1570
 1310 1176 1359
 724 723 725
 1338 1337 1393
 466 465 467
 1450 1445 1506
 1176 1161 1344
 410 412 1304
 683 684 685
 1867 1866 1868
 1321 1320 1414
 771 775 1903
 1381 1236 1382
 877 752 878
 779 778 780
 1160 1206 1633
 590 591 592
 1173 1296 1297
 802 877 932
 1533 1404 1568
 413 411 441
 412 413 414
 1078 1159 1350
 1222 1221 1422
 661 658 675
 1270 1269 1486
 766 765 768
 1964 1526 1965
 1422 1221 1487
 1350 1351 1374
 1173 1251 1296
 1423 1448 1656
 1283 1111 2068
 1565 1566 1567
 1338 1393 1552
 1423 1422 1447
 685 687 692
 975 703 1168
 1384 1295 1591
 760 761 764
 1198 1299 1539
 1174 1523 1526
 1186 854 1315
 503 504 509
 777 778 779
 1062 1222 1379
 1534 1229 1580
 1413 959 1564
 1402 1232 1584
 434 1255 1627
 430 377 472
 378 430 448
 1141 1445 1450
 280 1322 1478
 45 44 188
 1188 1236 1381
 1299 1298 1689
 307 305 308
 566 565 1042
 366 365 377
 346 345 347
 344 343 345
 957 959 1413
 1224 1318 1319
 1416 1415 1679
 1135 1136 1536
 1233 1132 1254
 780 782 2074
 1112 1099 1346
 720 722 723
 588 589 590
 784 783 785
 423 1218 1489
 915 690 926
 365 350 2118
 1415 1309 1704
 1343 1342 1623
 1105 1030 1515
 1231 1609 1610
 666 664 1183
 586 585 587
 1265 1500 1501
 1242 1544 1644
 894 1056 1842
 1461 1577 1860
 1489 1218 2098
 1105 1516 1518
 1256 1438 1601
 1423 1447 1448
 1198 1014 1298
 952 924 1161
 956 1031 1305
 1104 372 1585
 775 776 777
 764 761 765
 1394 1335 1543
 1186 1366 1457
 1463 1562 1700
 1174 1526 1964
 1123 1124 1410
 680 682 683
 1543 1335 1593
 1518 1516 1519
 1200 1019 1390
 1186 1315 1366
 1486 1269 1625
 1610 1609 1619
 528 543 1865
 1554 1282 2084
 782 783 784
 1343 1623 1631
 952 1161 1176
 1374 1375 1583
 1133 1132 1233
 1448 1449 1640
 769 742 1309
 1004 942 1317
 342 340 343
 764 766 767
 1223 1149 1224
 586 587 588
 952 1176 1310
 1198 1298 1299
 1200 1390 1555
 1461 707 1577
 1353 1354 1510
 1224 1149 1318
 1105 1515 1516
 769 1415 1416
 743 745 746
 1403 1404 1533
 776 772 1327
 1265 1263 1500
 1188 1235 1236
 1439 1257 1475
 1197 1196 1232
 720 719 722
 1383 1236 2024
 1197 1402 1403
 1361 1158 1480
 1048 1050 1192
 771 772 775
 632 629 633
 1482 1288 1483
 1197 1232 1402
 433 442 478
 769 1309 1415
 757 758 760
 1148 1149 1223
 447 383 1613
 1448 1447 1449
 1175 2028 2029
 692 693 694
 1375 1351 1678
 1104 1585 1586
 1265 1501 1502
 669 667 670
 45 188 210
 551 548 552
 1382 1236 1383
 1355 1282 1554
 760 758 761
 1597 1598 1600
 1093 1092 1507
 1460 1520 1664
 1374 1351 1375
 1052 1211 1677
 780 781 782
 480 1336 1463
 720 723 724
 633 629 1966
 1065 1337 1338
 1403 1402 1404
 1188 1178 1235
 777 776 778
 464 465 466
 332 422 1141
 802 752 877
 302 301 303
 300 301 302
 1514 448 1820
 447 1613 1614
 412 411 413
 1091 1279 1528
 338 337 339
 1147 1282 1355
 782 781 783
 1147 1111 1282
 1256 1257 1438
 499 506 507
 666 1183 1451
 583 585 586
 672 703 975
 750 755 763
 1272 1358 1412
 1294 1295 1384
 352 350 365
 1098 1080 1458
 1282 1111 1283
 1161 924 1323
 573 572 575
 1412 1358 1629
 1245 1248 1334
 378 377 430
 346 347 348
 1264 1263 1265
 262 264 272
 758 756 759
 10 198 1752
 1104 1586 1587
 349 348 350
 747 745 751
 775 772 776
 655 658 661
 1439 1475 1499
 1412 1629 1630
 282 281 1428
 1460 950 1520
 755 756 757
 610 690 915
 1356 1508 1509
 1397 1153 1398
 665 664 666
 352 365 366
 757 756 758
 1281 1692 1693
 1522 1521 1622
 1343 1631 1632
 1615 1652 2181
 1137 1122 1464
 351 350 352
 352 366 502
 344 345 346
 583 582 585
 771 768 772
 662 1082 1503
 987 893 1316
 1411 1124 1894
 1281 1693 1857
 753 749 965
 1478 1322 1479
 913 1340 1341
 302 303 304
 596 950 1459
 718 719 720
 1206 1455 1471
 1144 1129 1462
 342 343 344
 300 297 301
 1341 1342 1343
 702 707 1461
 743 744 745
 749 747 1888
 576 577 578
 338 339 340
 1561 1290 2083
 1333 507 1832
 1646 279 1647
 429 433 473
 433 432 442
 581 582 583
 1095 1290 1549
 755 753 756
 915 1135 1571
 338 340 341
 569 568 752
 669 670 671
 1146 1521 1522
 1459 950 1460
 750 753 755
 1438 1257 1439
 1549 1290 1561
 748 747 749
 947 1313 1452
 1441 1194 1810
 551 552 553
 1373 1348 1688
 1616 1331 1617
 578 577 579
 1463 1336 1562
 743 741 744
 341 340 342
 569 752 802
 694 693 695
 341 342 364
 335 331 337
 665 666 667
 1139 1026 1542
 332 335 422
 460 464 501
 464 463 465
 410 411 412
 335 337 338
 499 497 506
 1127 1125 1369
 659 657 664
 1226 1225 1429
 447 1614 1615
 1529 1611 1612
 669 671 672
 304 303 305
 1428 281 1574
 1615 1614 1652
 1410 1124 1411
 1578 1280 1639
 655 654 657
 665 667 668
 672 673 703
 748 749 750
 1217 472 1472
 750 749 753
 668 667 669
 1137 1464 1465
 672 671 673
 1291 1685 1686
 499 507 1333
 659 664 665
 655 657 658
 366 377 378
 610 584 690
 1091 1528 1529
 718 717 719
 1529 1528 1611
 1480 1158 1481
 1347 1226 1348
 658 657 659
 491 296 1789
 1056 1226 1347
 1480 1481 1490
 297 295 361
 296 297 300
 716 717 718
 1372 1348 1373
 1357 1572 1588
 1464 1122 1505
 432 428 1085
 429 432 433
 1347 1348 1372
 1336 1217 1424
 926 690 1302
 242 241 243
 480 1217 1336
 332 331 335
 460 463 464
 410 359 411
 1372 1373 1376
 461 497 499
 239 242 254
 1469 477 1793
 609 584 610
 395 609 1624
 2106 1469 2179
 1357 1139 1391
 469 477 1469
 469 1469 2106
 294 296 491
 296 295 297
 1357 1391 1572
 429 428 432
 1237 489 1784
 329 331 332
 460 458 463
 461 459 497
 330 359 410
 331 330 1788
 1199 1237 1368
 239 241 242
 241 238 283
 584 394 1783
 395 584 609
 294 295 296
 386 428 429
 1199 489 1237
 457 459 461
 459 458 460
 329 330 331
 330 328 359
 488 1199 1446
 239 238 241
 393 395 1209
 395 394 584
 425 392 1781
 294 293 295
 386 292 428
 457 458 459
 489 462 1301
 488 489 1199
 329 328 330
 236 238 239
 394 392 425
 393 394 395
 291 293 294
 293 292 386
 457 456 458
 488 462 489
 327 328 329
 234 236 237
 236 235 238
 393 392 394
 291 292 293
 455 456 457
 454 462 488
 327 326 328
 234 235 236
 391 392 393
 291 288 292
 455 453 456
 454 455 462
 325 326 327
 1737 1736 1738
 234 228 235
 391 388 392
 286 288 291
 288 266 1300
 1497 1260 1498
 323 325 353
 454 453 455
 325 324 326
 1734 1736 1737
 233 228 234
 388 356 1770
 387 388 391
 286 266 288
 1496 1260 1497
 452 453 454
 323 324 325
 324 322 358
 1734 1735 1736
 166 228 233
 382 380 1488
 380 387 396
 387 356 388
 250 266 286
 273 250 1773
 487 1261 1626
 1260 420 1721
 1259 1260 1496
 182 1724 1725
 452 451 453
 323 322 324
 449 452 1400
 1734 1732 1735
 166 202 228
 380 356 387
 355 380 382
 1758 1757 1759
 1756 1758 1760
 250 207 266
 209 250 273
 212 209 1769
 487 1259 1261
 1259 420 1260
 182 1723 1724
 451 333 490
 449 451 452
 321 322 323
 1733 1732 1734
 182 25 1723
 166 28 202
 355 356 380
 1855 1854 1856
 1390 2022 2564
 1870 799 2150
 481 471 1939
 1853 1854 1855
 1756 1757 1758
 209 207 250
 190 209 212
 487 420 1259
 1643 278 1827
 1921 1922 1923
 847 728 1984
 1753 30 2111
 449 333 451
 319 321 1708
 321 320 322
 1731 1732 1733
 1385 540 1702
 1751 1750 2171
 1318 1149 2036
 355 336 356
 1325 1570 2044
 1665 1512 1755
 1970 1606 2347
 28 27 202
 280 1478 2090
 29 28 166
 516 966 2100
 368 375 2019
 1648 1232 1942
 1744 1208 2162
 935 576 1824
 1853 598 1854
 1756 1755 1757
 1379 1957 1958
 1910 1911 2032
 190 207 209
 1810 1811 1812
 419 420 487
 323 353 1768
 1921 960 1922
 2033 1604 2155
 424 384 2076
 1081 601 1955
 578 580 1872
 180 1740 1741
 9 2 203
 40 39 204
 9 10 1752
 17 16 1722
 36 171 1749
 46 45 210
 47 1 1745
 461 499 2112
 654 1959 2059
 25 24 1723
 1679 1415 1718
 1749 1750 1751
 318 333 449
 319 320 321
 320 317 1694
 1890 767 2284
 1328 257 1926
 1288 1879 2193
 1731 180 1732
 167 540 1385
 759 756 2087
 599 588 1880
 1074 1604 2033
 1197 1403 2001
 1036 1062 1980
 826 825 1947
 988 1065 2006
 1162 1504 1971
 416 417 2080
 625 962 2088
 496 505 2054
 651 1101 1925
 1670 1359 2038
 774 1713 2141
 420 399 1721
 1593 1335 1953
 1904 1214 1905
 224 336 355
 209 273 1769
 963 698 2078
 793 789 1838
 1154 401 1877
 1101 2022 2391
 667 666 1822
 260 271 1863
 188 208 210
 235 228 1777
 1004 1317 1969
 1087 882 2003
 356 336 1770
 250 286 1773
 380 396 1488
 787 721 1837
 1498 1260 1721
 1311 445 1913
 392 388 1781
 394 425 1783
 489 1301 1784
 1209 395 1624
 330 410 1788
 690 584 1783
 337 331 1788
 1166 1434 1808
 296 300 1789
 1001 542 1444
 409 444 1808
 504 495 1796
 379 374 1806
 1509 1508 2387
 347 360 1809
 477 993 1793
 545 547 1798
 246 245 1807
 522 519 1826
 478 1207 1818
 486 302 2161
 618 662 1803
 566 1042 1831
 448 430 1820
 1312 563 1919
 798 808 1805
 263 268 1804
 1082 1281 1857
 309 2091 2092
 473 433 1818
 557 611 1864
 846 1456 1841
 620 621 2086
 507 513 1832
 687 686 2058
 1340 1339 1675
 613 616 1861
 1043 1070 2004
 1685 1150 2004
 1215 1386 1901
 573 935 1869
 1257 570 1895
 703 673 1839
 1128 1146 2007
 350 348 2118
 527 528 1963
 895 1086 1997
 677 675 1866
 311 314 2091
 1124 1454 1894
 543 996 1865
 1057 549 1869
 779 780 1932
 354 307 2092
 682 894 1896
 987 1316 1858
 564 567 1919
 1034 886 1841
 773 771 1903
 1102 1174 1964
 306 373 2026
 532 534 2039
 274 277 2105
 1113 1245 1934
 418 434 1627
 1194 1103 1810
 701 700 1927
 523 529 2057
 962 627 1982
 832 835 2017
 973 862 2015
 631 656 1982
 1100 1934 2013
 829 970 2031
 908 907 2013
 839 1186 2017
 931 1087 2002
 838 834 2016
 928 1040 2185
 765 1027 2055
 982 984 2000
 644 642 1959
 979 967 2009
 1008 1009 1691
 819 865 2053
 922 867 1995
 1254 1132 2034
 732 774 2030
 918 705 1927
 747 751 1888
 758 759 1973
 397 403 2035
 944 784 1805
 806 811 2079
 446 1271 1994
 1142 1126 2007
 363 371 2103
 1599 1299 1711
 304 2026 2161
 1079 1077 1987
 1246 1249 2045
 1236 1235 2024
 639 640 2043
 1298 1014 2002
 1148 1223 1960
 1070 977 1963
 844 801 1932
 940 938 2028
 1027 761 1973
 1270 1486 2060
 390 265 2049
 1111 1098 2068
 629 964 1966
 782 944 2074
 980 1052 1677
 1161 1323 2062
 569 802 2089
 1290 1291 2083
 877 889 1513
 673 671 2120
 1282 1283 2084
 1117 1000 1559
 408 1378 2103
 1228 427 2035
 1056 1347 1842
 772 768 2055
 1658 1661 2387
 1218 1467 2098
 610 915 1571
 658 659 2129
 926 1302 1845
 965 749 1888
 1443 1441 2285
 1469 1793 2180
 366 378 2101
 437 469 2106
 1427 1357 1588
 438 440 1119
 226 231 2107
 334 426 2109
 287 399 419
 1274 1276 1701
 221 215 2214
 267 2109 2131
 1020 1214 1904
 2239 2142 2307
 471 1131 1939
 1886 1033 2164
 278 275 1827
 728 730 1984
 1677 1211 2210
 182 1725 1767
 2072 975 2073
 1214 1901 1905
 530 1763 2123
 281 280 2090
 1720 1719 2115
 966 1326 2100
 517 516 2100
 587 948 1914
 1896 1842 1897
 576 578 1824
 1060 1137 1975
 1405 424 2076
 384 385 2076
 1172 1053 1834
 601 581 1955
 580 602 1872
 727 762 2014
 1873 817 2053
 1453 1182 1873
 1407 1662 2500
 257 259 1926
 657 654 2059
 1850 1849 1851
 756 753 2087
 588 590 1880
 243 241 1795
 1163 1162 1971
 1961 1733 2420
 1177 1036 1980
 1062 1379 1980
 422 335 2066
 476 416 2080
 417 1994 2080
 607 1813 1814
 623 625 2088
 500 484 2077
 505 514 2054
 1072 651 1925
 1359 1176 2038
 1086 897 2025
 1910 822 1911
 1898 1345 1899
 1843 343 1844
 358 1716 1717
 1101 615 2022
 26 182 1767
 904 1985 1986
 30 29 2111
 1852 598 1853
 698 695 2078
 1116 1755 1756
 401 406 1877
 1463 1700 1821
 836 860 1993
 1512 1354 1935
 228 202 1777
 1488 396 1538
 882 857 2003
 24 194 1723
 1379 1956 1957
 721 887 1837
 796 805 1950
 957 1413 2005
 1834 1238 1835
 190 204 207
 190 40 204
 197 9 1752
 1808 1434 2187
 1798 547 1799
 1796 495 1797
 1839 673 1840
 1901 1386 1902
 1027 1973 1974
 418 1627 1628
 1810 1103 1811
 2070 1841 2071
 419 399 420
 41 190 212
 1005 1020 1904
 1855 1856 1936
 1854 605 1856
 2035 403 2471
 840 837 2021
 247 284 1794
 589 587 1914
 959 958 1991
 853 810 2018
 1672 917 2279
 1309 742 1915
 1053 1238 1834
 1431 1172 1834
 1800 466 1802
 1141 1450 1786
 947 1452 1799
 837 836 1993
 674 680 2069
 1487 1221 1976
 1268 1697 1893
 241 283 1795
 253 243 1795
 1920 960 1921
 1306 422 2066
 335 338 2066
 1044 891 1998
 1018 500 2077
 484 1595 2077
 794 796 1950
 559 1830 1895
 943 1061 1979
 897 914 2025
 1986 1985 2166
 237 236 1782
 615 1081 2022
 1354 509 1935
 582 579 2067
 1675 1106 2524
 1875 582 2067
 29 166 2111
 2120 2069 2121
 754 733 1920
 244 247 1794
 1104 1587 2050
 572 538 1815
 656 646 1924
 1528 1279 1695
 958 968 1991
 171 1728 1729
 967 853 2018
 810 851 2018
 742 743 1915
 332 1141 1786
 769 1416 2027
 1472 472 1825
 1221 921 1976
 674 2069 2120
 680 683 2069
 891 892 1998
 663 943 1979
 27 26 1767
 285 251 1849
 1027 1974 2163
 880 792 1951
 236 239 1782
 750 763 1862
 2063 1017 2064
 290 285 1850
 579 577 2067
 869 883 1981
 733 731 1920
 1352 870 1918
 740 769 2027
 1802 496 2054
 202 27 1767
 251 298 1849
 1315 854 1990
 1317 942 2020
 1470 1094 1707
 870 872 1918
 854 855 1990
 942 647 2020
 1656 961 2489
 668 2072 2230
 1318 2036 2154
 647 645 2020
 855 881 1990
 872 875 1918
 645 1006 2020
 1895 1830 2168
 1294 1384 1703
 1810 1812 2285
 1173 1297 2056
 1165 1054 2056
 881 954 1990
 875 953 1918
 738 740 2027
 166 233 2111
 731 960 1920
 871 869 1981
 369 290 1850
 1054 1173 2056
 577 1075 2067
 748 750 1862
 1455 1817 2178
 739 961 2010
 744 741 2010
 903 880 1951
 239 254 1782
 924 663 1979
 1749 1729 1750
 1423 1656 1956
 1379 1222 1956
 892 1088 1998
 921 861 1976
 1756 1760 1761
 1962 832 2017
 472 377 1825
 1825 365 2118
 372 2019 2152
 329 332 1786
 318 319 333
 319 317 320
 969 738 2027
 952 1310 1924
 646 648 1924
 538 535 1815
 367 1104 2050
 743 746 1915
 2209 1909 2378
 242 244 1794
 968 1049 1991
 916 713 2122
 711 980 2122
 171 1729 1749
 495 351 1797
 547 551 1799
 1103 1025 1811
 1038 871 1981
 509 510 1935
 2011 2012 2058
 791 794 1949
 945 748 1862
 1037 1187 1992
 860 920 1992
 320 1694 1716
 741 739 2010
 1323 924 1979
 1152 1268 1893
 1222 1423 1956
 1819 1308 2149
 338 341 2066
 934 624 1715
 861 1473 1976
 269 253 1795
 407 1096 1983
 377 365 1825
 837 1993 2021
 327 329 1786
 746 945 1915
 648 952 1924
 535 536 1815
 289 367 2050
 1807 1328 2200
 856 840 2021
 1721 1712 2144
 167 199 540
 254 242 1794
 595 589 1914
 713 711 2122
 1296 1485 2061
 809 957 2005
 805 803 2005
 193 33 2132
 32 183 2132
 1061 1005 1904
 364 342 2082
 510 991 1935
 857 884 2003
 2031 1184 2032
 860 1992 1993
 31 30 1753
 792 791 1949
 695 693 2078
 406 481 1877
 1303 1787 2145
 1379 1958 1980
 920 1037 1992
 905 903 2113
 1346 1099 2113
 1176 1344 2038
 1273 1163 1971
 1164 1072 1925
 964 1814 2194
 514 1181 2054
 1337 1152 1893
 660 623 2088
 1544 476 2080
 285 1849 1850
 605 628 1856
 1490 1624 2574
 624 622 1715
 903 1951 2113
 590 974 1880
 753 965 2087
 1130 407 1983
 1075 575 1816
 259 262 1926
 814 817 1873
 1182 812 1873
 37 1749 1751
 729 727 2014
 2001 1403 2153
 207 204 1765
 664 657 2059
 1033 845 1975
 885 1060 1975
 823 821 2176
 602 1071 1872
 581 583 1955
 1121 1657 2370
 385 1154 2076
 1073 1349 1996
 586 599 2099
 1474 856 2021
 179 1751 2171
 525 517 2100
 2349 1616 2437
 1574 281 2090
 358 322 1716
 2243 1662 2244
 2129 659 2130
 1922 960 2014
 1949 794 1950
 201 550 1743
 1906 849 1907
 1297 1296 2061
 1827 276 1828
 173 42 212
 659 665 2130
 413 441 1913
 445 415 1913
 1984 730 2030
 275 276 1827
 803 809 2005
 1131 1547 1939
 792 1949 1951
 1820 1463 1821
 321 323 1768
 1019 1004 1969
 1302 1783 2143
 342 344 2082
 388 1770 1781
 410 1304 1788
 1302 690 1783
 337 1788 2127
 300 486 1789
 993 1356 1793
 435 379 1806
 700 1314 1927
 348 347 1809
 430 480 1820
 485 409 1808
 1312 1919 2128
 541 522 1826
 568 566 1831
 662 1503 1803
 1503 1082 1857
 513 518 1832
 611 1476 1864
 1476 613 1861
 245 255 1807
 1329 687 2058
 373 418 2026
 1866 675 2129
 570 559 1895
 1068 773 1903
 684 682 1896
 1932 780 2074
 1258 1102 1964
 1959 642 2043
 567 1032 1919
 1132 1010 2034
 834 831 2016
 534 1151 2039
 528 1865 1963
 1184 982 2000
 867 925 1995
 912 908 2013
 970 1184 2031
 1295 1079 1987
 1186 1457 2017
 1249 1437 2045
 938 1796 2028
 2053 865 2185
 1690 1298 2002
 1223 1576 1960
 529 1047 2057
 1245 1334 1934
 899 620 2086
 811 1292 2079
 1146 1522 2007
 1513 889 1997
 265 1804 2049
 1098 1458 2068
 1456 844 1932
 1180 363 2103
 1140 354 2092
 1327 772 2055
 1284 1001 1444
 378 498 2101
 1377 274 2105
 426 437 2106
 220 226 2107
 261 260 1863
 670 667 1822
 789 787 1838
 1824 578 1872
 585 582 1875
 2097 1227 2328
 1753 2111 2137
 693 1329 2078
 1010 1995 2160
 533 530 2123
 1832 518 2117
 948 1875 1876
 1358 1565 2065
 479 1239 1953
 1335 1157 1953
 2042 1459 2212
 1099 905 2113
 1033 1975 2164
 919 988 2006
 1013 1197 2001
 954 930 2001
 574 558 2033
 562 1074 2033
 1495 1164 1925
 1376 1373 2271
 1566 1273 1971
 572 1815 1816
 202 1767 1777
 1168 1170 1846
 628 634 1856
 224 218 336
 223 224 1401
 1112 1346 2052
 575 572 1816
 1709 1768 2142
 262 272 1926
 812 814 1873
 2036 985 2154
 1713 1683 2141
 960 729 2014
 1183 664 2059
 42 41 212
 1585 372 2152
 1475 1895 2168
 845 885 1975
 862 823 2176
 432 1085 1792
 1239 442 1792
 1262 1846 1847
 1116 1756 1761
 1198 1539 1942
 1232 1196 1942
 375 423 2019
 1959 2043 2190
 1850 1851 2134
 828 826 1946
 1278 1676 2210
 1071 1073 1996
 583 586 2099
 652 1325 2044
 649 643 2044
 499 1333 2112
 1149 992 2036
 983 985 2036
 464 466 1800
 1617 1790 2520
 830 832 1962
 400 376 2134
 1470 1707 2196
 1946 826 1947
 518 521 2117
 976 1089 2117
 22 170 1730
 194 23 1730
 980 1677 2122
 179 38 1751
 927 1167 1954
 322 320 1716
 1289 1287 1871
 415 413 1913
 1055 681 1823
 458 456 1785
 1028 1105 2008
 760 764 1890
 480 1463 1820
 1356 1509 1793
 1592 1295 1987
 1454 1068 1903
 688 684 1896
 255 1328 1807
 498 1582 2101
 475 1241 1874
 412 414 1874
 1390 1019 1969
 33 32 2132
 398 310 1933
 665 668 2130
 1666 33 2288
 268 261 1863
 679 670 1822
 183 31 1753
 1407 1406 2095
 10 178 1714
 1212 1003 2157
 954 2001 2153
 1966 1537 2305
 501 1800 1801
 948 585 1875
 2009 967 2018
 353 325 2147
 1840 673 2120
 536 533 2123
 910 913 1967
 848 719 2159
 1708 321 1768
 1629 1358 2065
 2111 233 2137
 1985 1076 2166
 1157 479 1953
 1300 266 1765
 1537 1966 2330
 1138 1427 1811
 352 502 1797
 560 947 1799
 896 890 1952
 864 1352 2146
 2118 1809 2140
 594 598 1852
 974 592 1852
 1825 2118 2140
 451 490 1771
 1088 919 2006
 421 1307 2023
 264 299 2023
 456 453 1771
 904 906 1985
 909 1076 1985
 930 1013 2001
 558 562 2033
 787 1837 1838
 1943 706 1944
 893 876 1972
 346 349 2081
 1471 1455 2178
 1269 1201 2051
 1262 1168 1846
 351 352 1797
 551 560 1799
 1025 1138 1811
 2015 862 2176
 2055 1027 2163
 283 238 2173
 1822 1451 1823
 1153 1064 1938
 1243 1112 2052
 400 2134 2167
 1709 2142 2239
 2301 1175 2519
 345 343 1843
 492 357 1843
 1929 781 1931
 1108 1227 2097
 2059 1959 2190
 369 1850 2134
 559 556 1830
 313 312 1819
 462 455 1780
 459 460 1787
 1303 497 1787
 1794 284 2148
 1483 1288 2193
 1097 1345 1898
 816 815 1898
 1306 2066 2151
 442 432 1792
 1088 2006 2156
 35 34 1727
 757 946 1891
 763 755 1891
 1196 1198 1942
 423 1489 2019
 2134 1851 2167
 418 1628 2026
 454 488 1776
 1830 1829 2168
 1882 1454 1903
 831 828 1946
 1796 1797 2188
 1351 1159 1778
 235 1777 2173
 653 655 1948
 1872 1071 1996
 1955 583 2099
 1540 1278 2210
 404 419 2116
 470 439 2102
 643 652 2044
 775 1882 1903
 777 800 1882
 1786 1450 2147
 1428 1574 2384
 327 1786 2147
 715 916 1928
 992 983 2036
 266 207 1765
 289 2050 2148
 501 464 1800
 1884 1885 1887
 841 830 1962
 376 369 2134
 2006 1338 2156
 2034 1010 2160
 1339 912 2124
 804 797 2197
 521 976 2117
 1731 1733 2201
 37 180 1731
 38 37 1751
 2018 851 2146
 1371 1306 2151
 1096 402 2167
 254 1794 2148
 548 546 1829
 1136 927 1954
 506 1303 1879
 520 512 1879
 1579 1289 1871
 503 1353 2139
 1059 1362 1813
 607 936 1813
 1897 1842 2223
 1868 1866 2129
 593 591 1940
 1520 950 1940
 348 1809 2118
 426 2106 2109
 270 258 1988
 681 679 1823
 1109 2093 2213
 463 458 1785
 1029 1028 2008
 764 767 1890
 679 1822 1823
 636 951 1936
 1736 1735 2175
 414 475 1874
 1706 1586 2419
 2029 2028 2188
 1353 1510 2217
 1598 1468 2300
 1204 465 2192
 818 816 1900
 1078 1350 2166
 310 308 1933
 362 492 1999
 383 370 1999
 820 822 1910
 1473 2016 2169
 1930 1929 2263
 1347 1372 2223
 574 2033 2155
 2028 1796 2188
 985 971 2186
 40 41 165
 173 212 1769
 1003 852 2157
 1040 1662 2243
 1547 1548 2549
 1158 999 1968
 1882 800 1883
 18 187 1754
 195 19 1754
 821 1900 2176
 165 41 1707
 1457 1962 2017
 1514 1820 1821
 1294 1703 1778
 1879 1303 2193
 1783 425 2143
 1277 1275 2110
 544 541 2119
 650 612 2155
 325 327 2147
 501 1801 2145
 1372 1376 2236
 1832 2117 2183
 1813 1362 2194
 1809 1180 2140
 284 289 2148
 23 22 1730
 1333 1832 2183
 831 1946 2016
 913 1341 1967
 1500 1263 1848
 2066 341 2151
 2009 2018 2146
 912 2013 2124
 719 717 2159
 1314 963 2266
 1403 1533 2153
 213 214 2126
 1363 866 1912
 1452 1798 1799
 1015 896 1952
 851 864 2146
 878 752 1941
 1767 1725 1777
 1171 1212 2075
 592 594 1852
 2013 1934 2124
 1768 353 2142
 171 1727 1728
 485 1808 2187
 39 201 1740
 180 38 1740
 1308 1535 2149
 299 421 2023
 1343 1632 2093
 565 561 2047
 785 923 2150
 1320 1318 2154
 1022 691 1897
 906 909 1985
 453 451 1771
 1581 2406 2452
 1262 1847 1848
 1280 1090 2104
 502 2101 2189
 41 42 1707
 1092 2042 2212
 1735 1742 2175
 1795 283 2138
 1453 1873 2053
 1316 893 1972
 2409 1387 2422
 1867 1868 2205
 1941 1831 2184
 175 35 2201
 2143 425 2222
 1204 2239 2307
 349 494 2081
 1461 1860 2157
 692 1189 2114
 683 685 2114
 1625 1269 2051
 188 206 208
 425 1781 2222
 1917 1429 2389
 305 303 1817
 2113 1951 2172
 18 19 1739
 1685 1426 2380
 1492 1202 2218
 770 949 1937
 767 766 1937
 722 849 1906
 1856 634 1936
 238 235 2173
 286 291 1775
 1398 1153 1938
 249 208 1712
 357 345 1843
 603 597 2041
 341 364 2151
 1765 179 2171
 1458 2150 2224
 1556 1108 2097
 20 195 2229
 170 21 2229
 1840 2120 2121
 225 219 1636
 178 217 1714
 556 554 1830
 316 313 1819
 1301 462 1780
 497 459 1787
 1801 1800 2165
 1912 1910 2032
 815 1097 1898
 2016 1946 2169
 389 381 1977
 316 1819 2149
 1304 1874 2203
 2121 1189 2278
 1208 1114 2162
 269 1795 2138
 1346 2113 2172
 1824 1872 1996
 1975 1137 2164
 755 757 1891
 697 699 2085
 702 1461 2085
 1083 181 1739
 1811 1427 1812
 1992 1187 2195
 1993 1992 2195
 488 1446 1776
 1081 1955 2174
 318 317 319
 1092 937 2042
 2019 1489 2152
 1717 1716 2198
 2109 2106 2179
 1159 1294 1778
 1324 653 1948
 1387 2060 2422
 807 799 1870
 1080 813 1870
 1420 2248 2265
 1093 1507 2040
 2114 1189 2121
 1234 404 2116
 717 1928 2159
 672 975 2072
 668 669 2072
 571 470 2102
 1521 1252 1650
 1719 1704 2233
 775 777 1882
 1031 1231 1889
 1951 1949 2172
 1990 954 2177
 717 715 1928
 1225 1055 1836
 841 1962 2186
 1479 1322 1989
 463 1785 2192
 1315 1990 2177
 15 174 1726
 688 1896 1897
 1279 482 1978
 1704 1309 2233
 1840 2278 2308
 1436 1553 2231
 1301 1780 2112
 850 804 2197
 1962 1457 2186
 1800 1802 2165
 1949 1950 2172
 788 1671 2400
 2054 1181 2165
 1619 2414 2545
 1241 1420 2203
 171 35 1727
 1350 1374 2221
 1331 1219 1790
 402 400 2167
 1842 1347 2223
 762 725 2209
 1000 710 1774
 1785 1710 2192
 1018 1649 2440
 221 1401 1636
 206 205 2220
 2199 272 2227
 2081 494 2139
 436 405 2108
 899 2086 2125
 1338 1552 2156
 1793 1509 2180
 546 1067 1829
 2185 1040 2243
 2021 1993 2195
 1607 1673 2293
 220 2107 2126
 1567 1851 2565
 1333 2183 2225
 1606 1970 2512
 512 506 1879
 494 503 2139
 936 1059 1813
 1475 2168 2246
 1515 1030 2249
 2071 944 2316
 1188 1381 2242
 619 617 2247
 1844 339 2265
 950 593 1940
 724 1699 2438
 2093 1632 2213
 1322 270 1988
 1527 1715 2247
 1722 16 1726
 288 1300 1779
 428 292 1779
 634 636 1936
 1716 1694 2198
 783 781 1929
 1129 1127 2037
 1864 1476 2182
 2117 1089 2183
 1401 224 1764
 465 463 2192
 821 818 1900
 2046 1408 2460
 1076 1078 2166
 36 37 1731
 370 362 1999
 1955 2099 2174
 1899 1345 2249
 833 820 1910
 1987 1109 2213
 2422 2060 2434
 595 1914 2216
 1967 1341 2093
 1328 2199 2200
 1322 1988 1989
 971 841 2186
 1851 1567 2427
 2112 1333 2225
 2264 386 2404
 301 297 2241
 308 1817 1933
 1788 1304 2127
 1919 1032 2128
 1456 1932 2074
 2064 2335 2492
 2150 923 2224
 1481 1158 1968
 1777 1725 2173
 1585 2152 2259
 1552 1393 2581
 2067 1075 2202
 481 1939 2322
 1474 2021 2195
 1466 1876 2202
 1634 1277 2110
 1608 1675 2524
 1989 269 2138
 1067 544 2119
 1507 1092 2212
 612 574 2155
 2103 1378 2252
 2508 230 2548
 2163 2262 2263
 1189 694 1833
 696 956 1833
 2166 1350 2221
 2026 1628 2161
 1900 1899 2176
 1472 1825 2140
 1715 622 2247
 553 552 2048
 1802 2054 2165
 2139 1353 2217
 1263 1262 1848
 2148 2050 2208
 963 2078 2235
 1107 899 2125
 1089 978 1881
 1095 1549 1881
 1868 2129 2130
 2467 1142 2509
 704 706 1943
 1876 1875 2202
 1902 1386 2260
 1946 1947 2169
 1653 186 2503
 214 220 2126
 1327 2055 2163
 19 18 1754
 1156 1285 2259
 866 833 1912
 2217 1510 2276
 353 2147 2211
 474 1160 2267
 1580 1229 2267
 13 189 213
 174 14 213
 1018 1665 2570
 1797 502 2188
 833 1910 1912
 617 614 2261
 1707 42 2196
 990 878 1941
 571 2102 2158
 1459 1460 2212
 1875 2067 2202
 1327 2163 2263
 1517 1171 2075
 1701 540 2136
 1279 1978 2181
 1817 303 2178
 2078 1329 2235
 1744 1392 2483
 1831 1332 2184
 186 1653 2567
 954 2153 2177
 2082 2139 2217
 1137 1465 2164
 1341 1343 2093
 561 553 2047
 799 785 2150
 691 688 1897
 36 1731 2201
 539 1058 2277
 1151 537 2277
 2188 502 2189
 1639 1280 2104
 1705 1654 2302
 1180 2103 2252
 1348 1226 1916
 1022 1897 2223
 1592 1987 2213
 1773 286 1775
 2154 985 2240
 2142 353 2211
 935 1824 2219
 1934 1334 2124
 2223 1372 2236
 1256 1601 2268
 1216 1066 2268
 223 218 224
 199 200 2136
 1431 1834 2216
 685 692 2114
 1947 1185 2169
 1264 1265 2290
 1450 1506 2211
 1986 2166 2221
 1473 2169 2245
 1874 1241 2203
 1310 1360 2282
 2252 1378 2253
 254 2148 2208
 308 305 1817
 1300 1765 2171
 917 1986 2221
 293 386 2264
 361 295 2264
 2316 1805 2333
 38 39 1740
 2015 1899 2249
 1202 2009 2218
 34 175 2288
 1782 254 2208
 2050 1587 2208
 1136 1954 2271
 766 770 1937
 723 722 1906
 1818 2098 2386
 2182 1476 2254
 2147 1450 2211
 923 1930 2224
 961 737 2280
 735 754 2280
 1891 1531 2510
 2165 1181 2237
 990 1941 2184
 2219 2232 2336
 382 1488 2353
 1328 1926 2199
 355 382 1764
 1206 1471 2300
 2187 1434 2470
 1624 1490 2413
 35 36 2201
 1899 2015 2176
 2146 1352 2218
 2101 1582 2189
 1737 1738 2516
 2154 2240 2289
 1183 2059 2190
 608 603 2041
 1499 1475 2246
 383 1999 2319
 1779 1300 2170
 1999 492 2357
 923 1929 1930
 181 18 1739
 1114 1145 2162
 219 221 1636
 848 2159 2318
 1492 2218 2275
 1140 2092 2191
 1381 1409 2294
 941 998 2287
 991 939 2287
 2068 1458 2224
 2260 1387 2409
 42 43 2196
 217 223 2214
 13 14 1747
 1725 1724 2228
 1125 1034 2070
 2195 1187 2242
 1498 2144 2273
 443 389 1977
 2011 1193 2012
 2047 2048 2182
 989 1175 2301
 1259 1496 1772
 1303 2145 2193
 1122 1121 2370
 1041 929 2321
 1915 945 2233
 626 934 2292
 1006 630 2292
 1414 1320 2289
 1314 2266 2365
 315 317 318
 2009 2146 2218
 699 702 2085
 1699 724 2542
 2133 1578 2548
 1487 1976 2245
 1007 1671 2575
 641 649 2291
 951 638 2291
 21 20 2229
 1600 2264 2404
 2138 283 2228
 2262 1930 2263
 937 608 2042
 1498 2273 2314
 1769 273 2273
 925 858 2318
 2046 2045 2284
 608 2041 2042
 2127 1304 2203
 813 807 1870
 1293 1093 2040
 336 1687 1770
 1801 2165 2237
 2131 2109 2179
 669 672 2072
 2169 1185 2245
 1996 1349 2219
 1860 1859 2432
 1305 1031 1889
 170 2090 2537
 2040 2301 2519
 525 2100 2274
 1653 192 2567
 1474 2195 2242
 1507 2212 2270
 1143 1144 2094
 1559 1000 1774
 1454 1882 1883
 318 449 2257
 1784 2225 2226
 1430 1225 1836
 723 1906 2209
 986 1029 2309
 1311 1913 2256
 1834 1835 2216
 1110 1147 2303
 1301 2112 2225
 1826 525 2304
 272 2023 2227
 443 1977 1978
 482 443 1978
 1181 2057 2237
 29 191 2326
 172 28 2326
 1532 1436 2231
 847 1984 2234
 2092 2091 2191
 1250 1247 2320
 2386 1597 2578
 1313 1645 2349
 217 218 223
 1663 1016 2310
 364 2082 2217
 1671 788 2575
 1219 1426 1790
 1363 1912 2251
 1750 2170 2171
 283 2173 2228
 1792 1085 2296
 1676 916 2547
 2273 273 2314
 725 723 2209
 44 43 205
 1393 1337 2234
 2172 1950 2250
 2221 1374 2279
 2126 2107 2315
 1309 1915 2233
 16 15 1726
 440 436 2108
 1085 2170 2296
 1346 2172 2250
 1824 1996 2219
 1563 2062 2587
 2311 1738 2321
 2212 1460 2270
 2198 1535 2207
 1453 2053 2185
 1654 1655 2302
 2140 1180 2252
 2133 382 2353
 1457 1366 2240
 1926 272 2199
 2052 1346 2250
 1190 2182 2254
 1860 1212 2157
 2064 1017 2335
 303 301 2178
 1829 1067 2168
 1887 1886 2338
 1542 1845 2474
 234 237 2337
 2130 668 2230
 2328 1227 2505
 314 315 2257
 1030 2015 2249
 449 1400 2257
 1187 1188 2242
 622 619 2247
 2043 640 2317
 1394 1543 2342
 1657 1380 2370
 2173 1725 2228
 1918 953 2275
 1476 1861 2254
 1917 2389 2431
 1784 1301 2225
 1717 2198 2207
 292 288 1779
 2224 1930 2269
 1374 1583 2279
 923 783 1929
 1700 1209 1821
 1211 1210 2298
 1453 2185 2243
 1017 676 2335
 678 1051 2335
 656 1924 2282
 1127 1369 2037
 1024 1193 2011
 689 900 2011
 985 2186 2240
 2138 2228 2286
 1483 2193 2238
 2505 1228 2584
 1774 918 2399
 1135 1536 2324
 1386 1387 2260
 2012 1329 2058
 1261 1772 2371
 1760 1758 2385
 1336 1424 2350
 2168 1067 2246
 1606 1495 2347
 1964 1965 2325
 1228 1652 2584
 1976 1473 2245
 1413 1564 2374
 230 1637 2548
 1582 2452 2480
 2073 1264 2205
 1537 1136 2271
 1434 1433 2353
 1184 2000 2251
 297 361 2241
 1402 1584 2352
 1573 1404 2352
 610 1571 2297
 483 467 2351
 1365 1453 2243
 339 2127 2265
 2205 1868 2230
 997 1134 2361
 1238 1045 2361
 2159 1635 2318
 1803 1503 2312
 883 863 2363
 2292 934 2513
 1710 1709 2239
 1297 2061 2412
 1950 805 2250
 2137 233 2337
 174 213 2126
 1491 1120 2299
 2100 1326 2274
 276 232 2344
 229 240 2344
 2005 1413 2295
 43 185 2196
 2068 2224 2269
 762 2378 2407
 1901 1902 2348
 2029 2188 2189
 2203 1420 2265
 2206 2190 2317
 2127 2203 2265
 635 632 2362
 2163 1974 2262
 11 12 1748
 963 2235 2266
 694 696 1833
 1763 1762 2412
 1576 1666 2288
 208 206 1712
 1503 1857 2372
 1623 2355 2521
 2225 2183 2226
 1408 2046 2522
 1283 2068 2269
 364 2217 2276
 1447 1422 2377
 396 387 2341
 1843 1844 2248
 1650 185 2566
 2240 1366 2289
 2186 1457 2240
 1204 2192 2239
 1913 441 2256
 1460 1664 2270
 978 1095 1881
 707 704 1943
 177 2131 2179
 2218 1352 2275
 1784 2226 2323
 1623 1342 2394
 1205 1190 2254
 2303 1147 2368
 1002 1155 1791
 2294 1409 2360
 1207 1156 2259
 1983 1504 2494
 27 172 2396
 1026 1023 1892
 917 2221 2279
 2080 1994 2328
 1863 282 2329
 1467 1597 2386
 441 411 2388
 1991 1553 2536
 1529 1612 2416
 2052 2250 2295
 191 1674 2585
 1595 483 2425
 1229 474 2267
 1656 1448 2393
 1337 1893 2234
 1868 2130 2230
 1723 194 2367
 1912 2032 2251
 1695 1279 2181
 2023 1307 2227
 614 650 2261
 786 788 2400
 1929 1931 2263
 1908 933 2526
 1355 1554 2255
 1594 1675 2433
 2032 1184 2251
 315 318 2257
 2061 1485 2448
 2331 1862 2392
 1515 2249 2303
 873 1038 2414
 14 13 213
 1399 1398 2339
 1833 1305 2278
 2220 1769 2273
 1261 2371 2532
 1454 1883 1894
 1980 1958 2340
 1792 2296 2358
 1530 1500 2504
 1733 1961 2571
 1183 2190 2206
 2253 1378 2376
 44 45 2484
 537 539 2277
 2094 1144 2095
 429 473 2404
 1620 1140 2450
 1535 1534 2322
 1925 1101 2347
 1973 759 2482
 1084 1083 2408
 1688 1348 1916
 2219 1349 2232
 1551 1550 2356
 1643 1827 2364
 1442 1558 2365
 492 1843 2248
 1435 1531 2421
 1395 1706 2419
 1285 1286 2419
 1066 1256 2268
 1805 808 2333
 177 2179 2180
 1408 1594 2460
 1931 1327 2263
 1089 1881 2226
 1697 1699 2418
 24 186 2567
 1426 1119 2380
 637 635 2431
 1520 1835 2518
 1419 1240 2435
 1923 1177 2340
 2250 805 2295
 2259 2152 2501
 1451 1183 2206
 1075 1816 2463
 1265 1502 2290
 1968 1253 2406
 540 199 2136
 850 2197 2363
 185 1650 2559
 186 25 2439
 2228 1724 2286
 2107 1377 2315
 1733 1734 2420
 237 1782 2306
 935 2219 2336
 1421 2236 2272
 1570 1569 2424
 2084 1283 2383
 47 46 1766
 2343 2585 2586
 2242 1381 2294
 1352 1918 2275
 2191 2091 2313
 998 1046 2447
 326 324 2441
 720 724 2438
 1865 1617 2520
 295 293 2264
 2226 1881 2323
 1373 1688 2305
 1923 1922 2538
 1757 1755 2446
 1430 2206 2317
 1334 1248 2460
 314 2257 2313
 2257 1400 2313
 1399 1945 2478
 1315 2177 2354
 2057 1047 2369
 1776 1446 2346
 1247 1244 2456
 1668 1375 2454
 1755 1512 2446
 916 1676 2469
 933 868 2451
 737 735 2280
 2251 2000 2311
 486 2161 2371
 1619 1609 2414
 2254 1861 2312
 1644 2505 2584
 1924 1310 2282
 948 1876 2444
 2197 797 2556
 1539 1653 2503
 1397 1399 2478
 953 1044 2334
 2192 1710 2239
 1678 962 2454
 1686 1685 2380
 1633 1206 2300
 2045 1437 2284
 2170 1750 2296
 1392 1039 2483
 1234 2116 2215
 1739 1705 2302
 745 744 2583
 2309 1029 2377
 33 34 2288
 1599 1711 2293
 918 1927 2417
 1367 1635 2469
 2047 553 2048
 328 326 2481
 1272 1412 2485
 1411 1894 2327
 1970 1317 2512
 46 176 2487
 1371 2151 2276
 1966 964 2330
 1589 1572 2222
 1952 990 2551
 224 355 1764
 508 1018 2570
 1035 1142 2530
 2374 1564 2456
 1430 1836 2206
 1479 1989 2286
 279 1642 2479
 1675 1339 2433
 1499 2246 2304
 879 1007 2575
 2372 1857 2445
 2492 1051 2514
 1836 1451 2206
 945 1862 2331
 1518 1519 2281
 1812 197 2285
 1237 1784 2323
 1011 1191 2516
 188 205 206
 2000 1220 2311
 2193 2145 2238
 1611 1528 2495
 1904 1905 2424
 795 1069 2556
 1513 1997 2283
 1409 1525 2360
 491 1789 2496
 1293 2040 2519
 884 1474 2294
 2170 1300 2171
 240 227 2508
 1961 1960 2453
 939 941 2287
 1472 2140 2252
 1953 1239 2401
 1546 1545 2541
 2452 1293 2480
 1139 1542 2474
 1695 403 2495
 1360 2523 2540
 1838 1837 2397
 1195 1370 2529
 1564 959 2536
 1067 2119 2246
 1305 1889 2308
 1390 1969 2391
 788 790 2575
 1587 1706 2306
 1369 1125 2070
 2145 1801 2238
 1828 276 2473
 485 2187 2376
 1134 989 2301
 2160 1995 2428
 974 2434 2493
 1261 1259 1772
 1083 1739 2302
 1505 1122 2370
 1130 1983 2494
 929 1363 2321
 1523 1494 2513
 630 626 2292
 1189 1833 2278
 2151 364 2276
 724 726 2542
 1145 1407 2500
 1789 486 2539
 2079 1292 2476
 1604 1603 2325
 1861 1803 2312
 1816 1815 2448
 196 13 1747
 2267 1160 2390
 2275 953 2334
 2073 2205 2230
 1487 2245 2309
 473 2386 2578
 1291 1686 2299
 1922 2014 2407
 1213 2049 2475
 177 1766 2131
 2436 1561 2464
 1443 2285 2398
 638 641 2291
 1533 1568 2502
 805 2005 2295
 1497 1498 2314
 1712 206 2144
 1989 2138 2286
 1596 2197 2556
 1595 2425 2529
 1316 1972 2405
 1665 1018 2440
 1937 1408 2522
 1418 1638 2258
 1449 1447 2442
 1170 1839 2332
 1839 1840 2308
 1801 2237 2238
 194 1730 2449
 1147 1355 2368
 2116 1626 2215
 2210 1211 2553
 858 848 2318
 887 1867 2366
 2190 2043 2317
 1883 1884 1894
 2099 599 2443
 1205 2254 2312
 192 23 2567
 707 1943 2339
 2274 1326 2373
 1142 2007 2509
 2091 314 2313
 1851 1849 2565
 1368 2436 2464
 2308 1889 2332
 1935 991 2446
 1468 1230 2569
 996 1798 2437
 1605 2292 2513
 1199 1368 2531
 1750 1729 2296
 759 2087 2560
 2283 1997 2338
 1151 1871 2550
 2115 2331 2392
 1489 2098 2501
 1634 2110 2428
 2119 1826 2304
 1773 1775 2395
 1022 2223 2236
 1252 1143 2094
 1956 1656 2489
 1839 2308 2332
 1185 986 2309
 1320 2154 2289
 1400 1776 2346
 1782 2208 2306
 1363 2251 2311
 1123 1410 2394
 2142 2211 2307
 2208 1587 2306
 2233 945 2331
 996 2437 2554
 1649 1371 2345
 1648 1942 2503
 847 2234 2418
 1424 1217 2253
 1345 1110 2303
 2002 1087 2511
 754 1920 2544
 1571 2324 2561
 1626 1261 2532
 1474 2242 2294
 2480 1293 2519
 2215 1491 2573
 268 1863 2329
 1405 1878 2390
 1424 2253 2376
 2424 1569 2517
 1204 2307 2351
 1365 2243 2244
 1447 2377 2442
 1997 1086 2338
 2020 1006 2512
 1553 1250 2320
 1081 2174 2564
 2281 751 2552
 1452 1313 2349
 1639 2104 2416
 1963 1865 2520
 1699 1698 2438
 1837 887 2366
 1323 1979 2517
 2585 1432 2586
 1930 2262 2269
 1414 2289 2354
 1 177 2180
 981 1123 2524
 2552 751 2583
 1762 1760 2385
 1421 1022 2236
 1392 2162 2500
 2356 1550 2451
 1881 1549 2323
 2174 1555 2564
 28 29 2326
 1191 1961 2420
 1555 1390 2564
 2317 640 2389
 974 1852 2434
 2234 1893 2418
 1905 1570 2424
 916 2122 2547
 1566 1971 2588
 403 1213 2495
 1613 383 2319
 1258 1964 2325
 1252 2094 2096
 1515 2303 2368
 2245 1185 2309
 2249 1345 2303
 1719 2233 2331
 964 2194 2330
 1909 1383 2378
 1532 2115 2392
 1371 2276 2345
 1522 1622 2381
 1493 1492 2334
 1492 2275 2334
 609 610 2297
 884 2294 2360
 1238 2361 2518
 188 44 205
 1239 1792 2358
 2365 1558 2417
 183 1753 2533
 2177 2153 2402
 2115 1719 2331
 1047 2039 2461
 2300 1471 2466
 1544 2080 2328
 1869 935 2336
 1620 2450 2531
 763 1891 2510
 1207 2259 2501
 2246 2119 2304
 1526 1527 2507
 1534 1580 2468
 1921 1923 2340
 233 234 2337
 2350 1424 2477
 2211 1506 2307
 1398 1938 2528
 1936 951 2409
 1431 2216 2444
 2276 1510 2345
 2191 2313 2346
 1545 2256 2541
 1778 1703 2490
 1692 1389 2310
 1420 1419 2357
 1472 2252 2253
 1726 174 2315
 1396 1394 2342
 1630 2227 2375
 1857 1693 2445
 2368 1355 2429
 1889 1610 2332
 1663 2310 2423
 2312 1503 2372
 2084 2383 2482
 2449 1730 2537
 1642 1643 2329
 1160 1633 2390
 2459 2462 2465
 1665 1755 2570
 2411 2105 2498
 1568 1573 2343
 2167 1851 2427
 2360 1525 2426
 1210 1590 2298
 2296 1729 2358
 676 678 2335
 1177 1980 2340
 1625 2051 2580
 1878 2267 2390
 1307 1556 2375
 2288 175 2453
 1378 485 2376
 900 1024 2011
 2108 1234 2573
 2278 1305 2308
 2562 2156 2582
 1755 1116 2570
 2496 1789 2539
 1905 1901 2348
 2025 2327 2543
 1775 491 2395
 1377 2105 2411
 898 1016 2558
 1571 1135 2324
 2062 1323 2587
 571 2158 2410
 1928 916 2469
 962 1982 2454
 174 2126 2315
 2340 1958 2544
 2216 1914 2444
 1562 1336 2350
 2144 206 2220
 2141 1684 2582
 2367 194 2449
 1227 1228 2505
 2369 1047 2461
 1540 2210 2553
 2232 1349 2579
 1237 2323 2436
 1510 1511 2345
 1577 707 2339
 1592 1663 2423
 1624 609 2574
 1462 2037 2379
 1650 1252 2096
 1433 2133 2353
 1525 1551 2426
 1404 1402 2352
 483 2351 2425
 2083 1291 2299
 467 1204 2351
 1916 1917 2555
 1366 1315 2354
 1495 1925 2347
 1045 997 2361
 1884 1887 2327
 863 850 2363
 1326 1484 2373
 2227 1307 2375
 774 2141 2581
 1614 1644 2584
 2319 1419 2435
 2207 1535 2322
 1449 2442 2525
 1724 1723 2367
 1410 1411 2355
 2307 1506 2351
 1487 2309 2377
 273 1773 2314
 1602 1869 2336
 1536 1537 2330
 2461 2039 2550
 2175 1744 2483
 2144 2220 2273
 2310 1389 2423
 232 229 2344
 2003 884 2360
 1638 1417 2089
 2235 1364 2266
 1364 1440 2266
 1516 1515 2368
 2320 1564 2536
 1662 1392 2500
 1170 2332 2457
 632 633 2362
 1729 1728 2358
 1008 1691 2356
 1752 198 2515
 2333 808 2379
 1480 1490 2574
 2104 1529 2416
 1518 2281 2525
 2295 1413 2374
 2525 2281 2552
 660 1703 2486
 1945 888 2478
 473 1818 2386
 2381 1746 2509
 1412 1630 2375
 2238 2237 2369
 744 2010 2393
 2482 759 2560
 1217 1472 2253
 2323 1549 2436
 198 11 1748
 2181 1652 2471
 1541 1365 2244
 1422 1487 2377
 2124 1334 2433
 1383 2024 2378
 387 391 2341
 1591 1592 2423
 2158 1645 2410
 1479 2286 2367
 1847 1846 2545
 808 2079 2379
 951 2260 2409
 2183 1089 2226
 1483 2238 2369
 1887 2338 2543
 2098 1467 2386
 1827 1828 2364
 1972 955 2405
 1038 1847 2545
 1342 1608 2394
 933 2451 2526
 1961 2453 2571
 2325 1603 2579
 1332 1205 2372
 2241 361 2466
 1593 1953 2401
 2161 1628 2371
 1858 2075 2432
 802 1638 2089
 1380 1002 1791
 888 1696 2478
 1747 1385 2534
 1314 2365 2417
 1211 2298 2553
 1542 1026 1892
 2286 1724 2367
 1485 1466 2463
 268 2329 2577
 411 359 2388
 1527 2261 2507
 1243 2052 2374
 2378 2024 2407
 2141 1552 2581
 2289 1366 2354
 1969 1970 2391
 2135 1421 2272
 2346 1446 2450
 1069 1838 2397
 2502 1568 2586
 2332 1610 2457
 2313 1400 2346
 1448 1640 2393
 1165 2056 2385
 1684 2562 2582
 633 1688 2555
 1727 193 2491
 168 1509 2387
 2210 1676 2547
 1323 2517 2587
 26 27 2396
 1867 2290 2366
 1617 1865 2554
 2266 1440 2365
 1522 2381 2509
 1452 2349 2437
 1862 763 2392
 1502 1501 2497
 2434 2060 2493
 2086 660 2486
 1429 1430 2389
 1434 2353 2470
 2137 1396 2533
 1927 1314 2417
 1051 786 2400
 176 1746 2381
 1516 2368 2429
 1544 2328 2505
 1880 974 2493
 1644 1614 2527
 1549 1561 2436
 2248 1420 2357
 1835 1238 2518
 1258 2325 2579
 176 2381 2487
 1559 1774 2399
 168 1 1509
 1363 2311 2321
 2437 1616 2554
 2070 2071 2316
 955 873 2414
 1859 1858 2432
 1649 2345 2440
 1576 2288 2453
 2003 2360 2426
 2343 191 2585
 1417 1284 2359
 1728 1727 2491
 2429 2255 2472
 2342 183 2533
 1894 1884 2327
 2125 2086 2486
 1008 2356 2451
 386 429 2404
 2201 1733 2571
 2329 1643 2577
 1501 1596 2497
 1722 2411 2498
 2256 441 2541
 2315 1377 2411
 2237 2057 2369
 1511 1665 2440
 1682 1680 2430
 1368 1237 2436
 1610 1619 2457
 1119 440 2380
 1490 1481 2403
 1598 2300 2466
 1243 2374 2456
 2014 762 2407
 1388 1084 2408
 961 2280 2489
 1438 1439 2462
 2153 1533 2402
 1730 170 2537
 26 2396 2439
 1559 2399 2506
 1212 1860 2432
 185 44 2484
 1440 1442 2365
 1496 1497 2496
 2189 1582 2480
 492 2248 2357
 1430 2317 2389
 1437 1435 2421
 1088 2156 2562
 1286 1395 2419
 2123 1763 2412
 2046 2284 2522
 1466 2202 2463
 1722 1726 2411
 2389 640 2431
 1041 2175 2483
 1096 2427 2455
 2403 1481 2406
 2455 1566 2588
 1509 1 2180
 2052 2295 2374
 640 637 2431
 1921 2340 2544
 1332 2372 2445
 1253 1293 2452
 1240 1242 2435
 2298 1702 2553
 1855 2409 2422
 1087 2003 2426
 2297 1480 2574
 2418 1699 2542
 1506 1445 2425
 2262 1974 2383
 2376 2187 2477
 2359 1284 2382
 1519 1516 2429
 2388 359 2481
 1893 1697 2418
 1205 2312 2372
 1880 2493 2535
 1734 1737 2420
 965 1888 2472
 1855 1936 2409
 1361 1480 2561
 1061 1904 2424
 2037 2333 2379
 1995 925 2428
 1652 1614 2584
 1853 1855 2422
 1096 2167 2427
 599 1880 2535
 2443 1625 2580
 25 26 2439
 1746 2467 2509
 1321 1414 2502
 1046 1165 2447
 2269 2262 2383
 324 358 2441
 718 720 2438
 2345 1511 2440
 1853 2422 2434
 1284 1444 2382
 1655 2034 2568
 2445 1693 2551
 2290 1502 2366
 1478 1479 2449
 177 47 1766
 1248 2046 2460
 196 1747 2534
 2105 1646 2498
 2322 1534 2468
 1355 2255 2429
 1852 1853 2434
 2498 1646 2563
 2377 1029 2442
 1216 2268 2458
 1914 948 2444
 2371 1628 2532
 1339 2124 2433
 1244 1243 2456
 2361 1664 2518
 1375 1678 2454
 1512 1935 2446
 1481 1968 2406
 1601 1438 2459
 868 1008 2451
 2039 1151 2550
 1960 1576 2453
 1444 571 2410
 2338 1086 2543
 1292 1541 2476
 1504 1983 2588
 1815 536 2448
 2383 1974 2482
 1482 1483 2461
 1484 1579 2465
 1983 1096 2455
 1846 1170 2457
 1283 2269 2383
 1542 1892 2135
 1369 2316 2333
 1781 1589 2222
 2037 1369 2333
 1696 1397 2478
 1678 1778 2490
 1267 1559 2506
 1384 2125 2486
 1965 1526 2507
 1519 2429 2472
 2390 1633 2569
 1144 1462 2576
 2382 1444 2410
 1798 1452 2437
 1483 2369 2461
 1726 2315 2411
 1039 1041 2483
 1029 2008 2442
 2435 1242 2527
 1917 2362 2555
 1061 2424 2517
 2425 1445 2529
 1877 481 2468
 1922 2407 2538
 2174 2099 2443
 650 1965 2507
 1538 2350 2477
 1465 1464 2499
 1612 1611 2473
 1582 1581 2452
 1209 1624 2546
 1676 1367 2469
 1613 2435 2527
 2007 1522 2509
 1974 1973 2482
 359 328 2481
 2441 358 2549
 2351 1506 2425
 2075 1212 2432
 1271 1272 2485
 1479 2367 2449
 1677 2210 2547
 1344 2064 2492
 2336 2232 2458
 1568 2343 2586
 1140 2191 2450
 1684 1682 2488
 2491 193 2590
 1482 2461 2550
 187 2498 2563
 2034 2160 2568
 995 1035 2530
 2202 1075 2463
 1661 1660 2467
 1478 2449 2537
 1703 1384 2486
 1647 279 2479
 1682 2430 2488
 1938 1859 2528
 1957 1956 2489
 1545 1130 2494
 1488 1538 2470
 45 46 2487
 1622 1521 2566
 1490 2403 2413
 2191 2346 2450
 1865 996 2554
 1644 1544 2505
 1531 1532 2510
 1220 1011 2516
 1998 1088 2562
 2255 965 2472
 193 2132 2590
 187 1722 2498
 2060 1486 2493
 2462 1484 2465
 2038 1344 2492
 1494 1605 2513
 1521 1650 2566
 2280 1957 2489
 1631 1623 2521
 1528 1695 2495
 1670 2038 2514
 1070 1963 2520
 1628 1627 2532
 2404 473 2578
 2008 1518 2525
 1942 1539 2503
 2132 1543 2590
 2523 1583 2540
 2196 185 2559
 1464 2258 2499
 2184 1332 2445
 2284 767 2522
 1317 2020 2512
 1661 1745 2387
 2095 1144 2576
 1500 1848 2504
 1550 1524 2526
 1175 2029 2519
 1979 1061 2517
 1664 1520 2518
 227 230 2508
 197 1752 2398
 1242 1644 2527
 1583 1668 2540
 1647 1754 2563
 1614 1613 2527
 1445 1195 2529
 1106 981 2524
 481 2322 2468
 1690 2002 2511
 2051 1555 2580
 1486 1625 2535
 1446 1199 2531
 1702 1540 2553
 1871 1482 2550
 2442 2008 2525
 1621 1546 2541
 2090 1478 2537
 1391 1139 2474
 726 847 2542
 2282 1360 2540
 1572 1391 2572
 1405 2390 2569
 1646 1647 2563
 767 1937 2522
 2232 1216 2458
 1086 2025 2543
 1369 2070 2316
 914 898 2558
 2160 1388 2568
 1597 1600 2578
 2459 1438 2462
 1920 1921 2544
 959 1991 2536
 2038 2492 2514
 1470 2196 2559
 1640 1449 2552
 2024 1235 2538
 1616 1617 2554
 358 1717 2549
 1234 2215 2573
 1643 2364 2577
 1772 1496 2539
 1561 2083 2557
 2152 1489 2501
 1554 2084 2560
 797 795 2556
 23 24 2567
 1230 1405 2569
 1116 508 2570
 1471 2241 2466
 2493 1486 2535
 790 879 2575
 1695 2181 2471
 1349 1258 2579
 751 745 2583
 175 2201 2571
 1432 1321 2586
 1569 1563 2587
 1543 1593 2590
 2450 1446 2531
 1754 187 2563
 1753 2137 2533
 1971 1504 2588
 1593 2491 2590
 2297 1571 2561
 1428 2384 2479
 1552 2141 2582
 2268 1602 2458
 1480 2297 2561
 2022 1081 2564
 1849 298 2565
 1804 268 2577
 2030 774 2581
 2122 1677 2547
 2143 2222 2572
 1424 2376 2477
 2156 1552 2582
 2453 175 2571
 2415 2108 2573
 1532 2392 2510
 990 2184 2551
 2397 1502 2497
 2279 1583 2523
 2162 1145 2500
 1316 2405 2589
 1514 1821 2546
 2029 2189 2480
 2401 1728 2491
 2258 932 2499
 1613 2319 2435
 1555 2174 2580
 1553 2320 2536
 2353 1488 2470
 2381 1622 2487
 2184 2445 2551
 1517 2075 2589
 1391 2143 2572
 1497 2395 2496
 2384 1647 2479
 1439 2373 2462
 2261 650 2507
 2451 1550 2526
 1496 2496 2539
 2327 1887 2543
 1602 2336 2458
 2285 197 2398
 2029 2480 2519
 1672 2279 2523
 2373 1484 2462
 2408 1655 2568
 1668 2282 2540
 1449 2525 2552
 1414 2402 2502
 1640 2552 2583
 2517 1569 2587
 1321 2502 2586
 2362 633 2555
 1058 2459 2465
 2407 2024 2538
 1821 1209 2546
 1051 2400 2514
 2084 2482 2560
 2355 914 2521
 1396 2342 2533
 847 2418 2542
 2222 1572 2572
 2395 491 2496
 1688 1916 2555
 2392 763 2510
 1593 2401 2491
 2364 1804 2577
 1069 2397 2497
 2473 1611 2475
 2402 1533 2502
 1462 2476 2576
 2413 1514 2546
 1746 1661 2467
 609 2297 2574
 1828 2473 2475
 1600 2404 2578
 2464 1561 2557
 2488 1998 2562
 1491 2415 2573
 2405 1517 2589
 185 2484 2566
 1624 2413 2546
 2484 1622 2566
 1983 2455 2588
 1388 2408 2568
 2174 2443 2580
 2476 1541 2576
 1684 2488 2562
 2521 914 2558
 1631 2521 2558
 1745 168 2387
 3 2594 4186
 2623 4 4604
 3613 3611 4050
 3880 4170 4316
 3982 3488 4097
 4466 3944 4781
 4050 3611 4060
 4006 2658 4606
 4134 2623 4604
 55 56 4158
 4693 4410 4908
 2621 4138 4693
 3488 3982 4079
 4290 3036 4765
 3903 4097 4697
 3832 4410 4693
 3714 4431 4497
 3974 3630 4048
 3705 3704 4054
 3996 3414 4781
 4007 3469 4798
 3976 4797 4807
 2621 4098 4138
 3538 3587 4402
 3467 4244 4912
 3079 4056 4549
 4331 3734 4805
 4263 4575 4905
 4797 3247 4807
 3424 4091 4743
 4001 3733 4215
 4151 4290 4765
 4232 3907 4233
 3735 4000 4317
 3587 3992 4402
 4499 4006 4606
 4041 3640 4648
 4734 3533 4771
 4091 4093 4743
 4575 3489 4905
 2613 4034 4454
 4231 3907 4232
 4170 2595 4316
 3852 4005 4924
 3842 4511 4847
 3413 4466 4781
 4738 4710 4790
 3498 3999 4068
 2980 4059 4805
 4607 4235 4967
 4089 3079 4549
 3477 3653 4099
 3999 3498 4039
 3805 3393 4113
 4031 2598 4032
 3900 4043 4841
 4088 3765 4215
 4841 4043 4868
 4115 3907 4231
 3753 3365 4650
 3022 3979 4927
 4490 3966 4847
 3928 3734 4331
 3979 3022 4649
 4126 4235 4607
 2600 4163 4257
 3705 4054 4618
 3532 4115 4231
 4045 3596 4598
 3957 4734 4771
 4077 3381 4078
 4092 3562 4093
 4048 3630 4049
 56 2605 4158
 3672 3467 4912
 3414 3996 4791
 3838 4002 4040
 4213 3952 4875
 3903 3982 4097
 3101 3098 4127
 4108 3184 4851
 3467 3819 4244
 4021 3501 4067
 4059 3949 4805
 4097 3015 4697
 3831 4738 4790
 4026 4025 4220
 3501 4021 4084
 3904 3841 4070
 4093 3562 4094
 4455 3981 4608
 4035 3553 5010
 4008 2607 4074
 2614 4082 4180
 2944 2975 4150
 4580 4852 4934
 3469 4286 4798
 3553 4035 4036
 4042 3709 4104
 3653 3904 4099
 2619 3997 4163
 4395 3867 4567
 3676 4050 4060
 3319 4490 4847
 3469 4007 4865
 2935 4784 4889
 4000 3735 4827
 4784 4090 4889
 2607 4008 4098
 3440 3677 4094
 2996 4010 4494
 3733 4001 4792
 4102 3700 4809
 4163 3997 4257
 4085 3263 4086
 4041 3792 4524
 3586 4265 4266
 3997 2619 4157
 3644 3544 4138
 3289 4024 4802
 4614 4196 4737
 4133 3948 4786
 4497 4431 4904
 4687 3936 4697
 3716 4069 4114
 4495 4041 4524
 4852 4361 4934
 3414 3413 4781
 3578 3345 4104
 3949 4331 4805
 3393 3603 4113
 3931 4009 4816
 4180 4082 4841
 3116 3102 4140
 3709 4042 4103
 4110 4108 4851
 3712 4286 4650
 3200 3329 4141
 2619 55 4158
 4431 3714 4520
 4088 4215 4757
 3856 4133 4786
 3641 4213 4875
 4112 4845 4859
 4845 3524 4859
 3613 4050 4051
 4032 2598 4033
 4775 4065 4813
 3803 4061 4856
 4887 3311 4937
 4164 4887 4937
 4286 3712 4798
 4061 3803 4751
 4054 3704 4055
 4511 3842 4736
 3636 3474 4142
 4220 4025 4917
 4078 3381 4746
 4128 3753 4650
 3586 4266 4821
 4038 3438 4808
 4811 3752 4866
 3759 4118 4681
 3682 4139 4728
 4511 3319 4847
 4070 3841 4526
 3553 3978 5010
 2598 4031 4660
 3216 4046 4394
 4029 3447 4797
 3562 3440 4094
 4196 3175 4737
 3447 4029 4919
 3596 4045 4678
 4601 3940 4648
 3909 4395 4567
 3969 3973 4715
 3937 4102 4809
 3328 4122 4123
 3301 4101 4140
 3226 4087 4834
 4087 3226 4884
 3640 4041 4495
 4003 4811 4866
 3974 4048 4895
 3709 3578 4104
 4365 4804 4815
 4 2604 4714
 2613 4454 4619
 4034 2613 4900
 4114 4069 4796
 3225 3101 4127
 3838 4040 4839
 3555 4715 4854
 4047 4041 4648
 3969 4715 4946
 3812 3811 4704
 2931 2929 4146
 4101 3301 4992
 2616 4004 4893
 3452 4047 4351
 4094 3677 4095
 4170 3880 4922
 4086 3263 4761
 4045 4598 4645
 3098 3972 4127
 4027 3772 4649
 4279 3854 4791
 3315 4455 4608
 3015 4687 4697
 4126 4607 4655
 4153 2597 4154
 3789 4589 4929
 3140 4479 4846
 4021 4022 4084
 4024 3289 4792
 4155 3561 4629
 3438 4038 4898
 3805 4113 4667
 4093 4094 4897
 4162 3239 4555
 4161 4453 4882
 4743 4093 4897
 2956 2949 4712
 4005 3852 4221
 3544 3832 4138
 2941 2944 4150
 4479 3140 4903
 3934 3708 4343
 3538 4402 4661
 4072 3225 4127
 4047 3939 4647
 4235 4236 4967
 3812 4704 4790
 4584 3614 4753
 4872 3906 4894
 3562 4092 4141
 4142 3789 4929
 4769 3736 4964
 3639 3803 4856
 2599 4777 4878
 3945 4685 4741
 3365 3712 4650
 50 2612 4172
 3772 4027 4771
 4804 3847 4815
 2595 4081 4316
 4342 3934 4343
 3201 3200 4141
 4004 2616 4176
 4436 3817 4437
 4716 2795 4802
 3639 4856 4997
 3204 3116 4140
 3858 2632 4186
 4008 3644 4138
 3102 3301 4140
 2616 4033 4892
 4153 4155 4629
 4065 4644 4813
 4215 3733 4757
 4061 2766 4145
 3329 3562 4141
 4126 4655 4780
 3965 4049 4698
 4024 4026 4802
 4289 4848 4849
 4033 2616 4893
 4009 3931 4869
 3225 4072 4125
 3998 4769 4964
 3753 4128 4684
 3676 4060 4188
 3640 4601 4648
 4136 2655 4179
 3999 3636 4142
 2924 4037 4995
 2658 4006 4861
 4010 2996 4830
 3477 4099 4885
 4410 4057 4908
 4873 4101 4896
 4107 3764 4525
 4118 3612 4681
 4138 3832 4693
 4037 2924 4906
 3939 4047 4648
 3474 3789 4142
 3328 4123 4968
 4152 2597 4153
 4777 3910 4878
 4360 3511 4886
 3263 4085 4087
 4230 3023 4870
 4524 4872 4894
 4139 3808 4728
 3023 4230 4926
 3765 4088 4605
 3770 4162 4555
 4715 3973 4854
 3142 4083 4111
 3681 4072 4127
 3919 4558 4665
 3939 3938 4647
 4039 3498 4423
 3737 4105 4265
 3296 4616 4964
 4036 4035 4277
 3907 3732 4233
 3847 3846 4718
 4056 3079 4826
 3967 4798 4880
 4144 3761 4550
 4824 4070 4876
 4402 4401 4661
 3735 4317 4764
 4150 2975 4911
 4550 3761 4997
 4104 3345 4584
 3952 4213 4793
 3976 4029 4797
 2622 4136 4179
 4043 3900 4948
 4070 3848 4876
 4076 3690 4739
 4147 3201 4626
 4850 3064 4891
 4069 3322 4796
 3776 4206 4529
 4128 4129 4684
 4159 2660 4510
 3985 3984 4588
 4038 3931 4816
 3846 4124 4718
 2949 2931 4146
 3335 3452 4351
 3201 4141 4626
 3854 4279 4902
 4299 4752 4760
 4574 3897 4881
 4647 3938 4817
 3967 4007 4798
 2929 3488 4146
 4735 3852 4924
 4480 4110 4690
 4265 4105 4266
 4124 3846 4704
 2763 2784 4225
 4104 4584 4753
 4770 3505 4864
 4077 3705 4618
 4049 3965 4953
 3944 4466 4883
 3125 4120 4356
 3338 3260 4397
 4037 3936 4687
 4172 2612 4923
 3919 4665 4978
 3940 3939 4648
 4685 4155 4741
 4635 4768 4912
 4313 4812 4836
 4036 4277 4278
 3809 4603 4899
 4162 4161 4882
 3511 4360 4827
 2949 4146 4712
 4067 3501 4191
 4074 2607 4165
 4243 3819 4695
 4575 3978 4940
 4059 2980 4651
 4848 3961 4849
 4671 2878 4723
 53 54 4163
 2784 3437 4225
 4318 3476 4764
 2624 4168 4504
 4068 3999 4142
 3322 4069 4956
 2632 2603 4186
 3810 4130 4135
 4082 3900 4841
 3488 4079 4146
 3817 4436 4782
 4066 3131 4799
 4130 2637 4135
 3981 4455 4989
 3678 3833 4119
 2617 4154 4932
 4479 3681 4994
 3988 4850 4891
 3831 4482 4828
 3483 4121 5008
 3296 3481 4616
 4846 4479 4994
 4090 3897 4574
 4154 2617 4741
 4026 4716 4802
 4081 2595 4699
 4009 4667 4816
 4084 4022 4896
 3125 3104 4355
 3978 4575 5010
 4137 2622 4166
 3083 3121 4202
 4603 3809 4931
 2766 4061 4751
 3819 4243 4244
 4136 2622 4137
 3874 4315 4535
 3770 4161 4162
 3847 4718 4815
 4616 3998 4964
 3867 4395 4803
 4118 3682 4728
 3476 4318 5015
 3904 4070 4824
 3131 4066 4973
 4233 3732 4307
 4494 4010 4835
 4117 4263 4905
 4510 2660 4517
 4667 3537 4816
 54 2619 4163
 4040 4002 4976
 54 2593 2625
 4099 3904 4514
 4642 3793 4713
 4738 3831 4828
 2636 2654 4572
 4836 3955 4933
 4451 4631 4779
 3256 3257 4367
 3613 4051 4052
 4046 3216 4909
 4032 4033 4112
 3859 4527 4528
 3979 4106 4927
 4110 4480 4961
 3928 4331 4675
 4022 4873 4896
 4747 3942 4806
 77 2606 2627
 4680 3759 4681
 80 2591 4071
 84 4159 4510
 3996 4279 4791
 3239 4162 4638
 3601 4188 4358
 81 80 4071
 4139 3942 4747
 4132 3948 4133
 3651 3990 4352
 2625 2593 2650
 4661 4401 4813
 4131 3911 4974
 4057 2596 4908
 3533 3772 4771
 4361 4360 4886
 2824 3240 4267
 3260 3261 4397
 4082 2614 4745
 3499 4349 4582
 4402 3992 4998
 4437 3835 4701
 4095 3677 4096
 3338 4397 4398
 4100 4101 4992
 4153 4154 4155
 3036 4290 4877
 3553 4036 4190
 4640 3352 4663
 4266 3334 4821
 4006 4499 4788
 3337 3589 4203
 3761 3639 4997
 2627 2606 2636
 3176 3337 4203
 4188 4060 4358
 3849 4070 4526
 59 2595 4170
 4588 3984 4977
 4271 2828 4428
 3408 3410 4234
 3161 3167 4375
 4077 4618 4874
 4768 3672 4912
 3681 4127 4994
 56 55 4165
 4121 3483 4963
 3397 4467 4567
 4252 3963 4923
 4434 3715 4579
 3381 4077 4874
 4267 3240 4268
 3911 3507 4974
 3776 3812 4206
 3809 3788 4655
 3104 3130 4355
 3986 4770 4864
 4098 4008 4138
 3293 4574 4881
 3955 3954 4933
 4401 4775 4813
 3438 3969 4808
 4252 4923 4988
 4832 3659 4894
 3079 4089 4784
 2888 3023 4321
 3764 4107 4750
 3499 3073 4349
 4320 2890 4321
 78 77 2627
 4812 3955 4836
 3248 2956 4712
 3806 3525 4303
 2655 2593 4179
 2818 2817 4324
 3066 4075 4800
 4083 3142 4121
 3874 3493 4315
 3690 4076 5005
 3561 4155 4685
 2626 78 2627
 4772 3810 4855
 2622 51 4166
 2607 56 4165
 3326 4744 4775
 4324 4591 4656
 4237 3018 4566
 2596 4057 4913
 3253 4434 4579
 4135 2637 4572
 2967 4297 4557
 3053 3056 4201
 4140 4101 4873
 4222 4652 4965
 3067 3018 4237
 2740 4205 4710
 4137 4166 4503
 3633 4190 4512
 2890 2888 4321
 3228 3229 4259
 4234 3410 4235
 51 50 4166
 3663 3651 4352
 2654 4135 4572
 4157 2619 4158
 4823 3813 4862
 3287 4688 4756
 4351 4047 4647
 3372 3370 4190
 4133 3856 4829
 4080 3557 4885
 2826 2824 4267
 4527 3859 4538
 4096 4580 4934
 54 53 2593
 4133 4829 4962
 4388 3798 4810
 4752 3927 4760
 4496 2702 4587
 4324 2817 4591
 3262 3715 4434
 4349 4348 4582
 2950 2952 4276
 79 78 2626
 4026 4220 4716
 2627 2636 4572
 4028 4671 4723
 2600 53 4163
 4045 3926 4678
 2828 2830 4428
 2600 4257 5009
 4415 3523 4644
 4829 2623 4962
 2776 4254 4275
 3174 3808 4340
 4167 3717 4529
 4166 2624 4503
 2761 2763 4225
 58 59 4170
 3798 4388 4956
 4339 3872 4393
 2894 2890 4320
 4206 3231 4529
 3048 3175 4196
 4004 3915 4893
 3159 3161 4375
 3491 3872 4339
 3415 3738 4409
 4503 2624 4504
 4427 4271 4428
 3675 3962 4488
 4621 2718 4653
 4394 4046 4803
 4489 3692 4586
 4652 3802 4965
 3520 3408 4234
 3619 3976 4240
 3601 4831 4862
 3397 2820 4467
 3773 4376 4677
 4222 3548 4652
 2821 2818 4324
 3406 4103 4950
 3861 4246 4543
 3366 3606 4322
 3892 4251 4602
 2844 4287 4476
 2915 2899 4191
 4075 3066 5018
 2967 2965 4297
 3892 3500 4250
 3717 3776 4529
 4052 4051 4053
 3383 4457 4468
 3225 4125 4594
 4190 4036 4512
 3056 3083 4202
 3525 3526 4303
 4235 3410 4236
 3501 2915 4191
 2837 4578 4597
 2962 2959 4461
 3158 4339 4393
 2650 2593 2655
 2774 2776 4275
 3433 3228 4259
 3892 4250 4251
 3142 4111 4439
 3011 3744 4458
 4194 4193 4837
 3690 3968 4739
 3633 3372 4190
 3179 3296 4359
 4055 3704 4686
 2636 2606 2639
 2731 2717 4473
 4105 3737 4769
 3861 2891 4246
 3910 3838 4839
 3229 3371 4259
 3289 2838 4353
 3723 4487 4632
 3510 3688 4363
 4315 3703 4535
 4075 4548 4800
 4225 3437 4980
 4202 3121 4203
 3370 3553 4190
 2954 2950 4276
 2767 4435 4569
 4513 4499 4606
 3383 2815 4457
 2743 2742 4296
 3908 3874 4535
 2634 4071 4711
 4837 4193 4879
 2669 3717 4167
 3247 4214 4807
 4143 3853 4576
 4219 4496 4587
 3416 3415 4409
 4609 3921 4673
 3857 4187 4534
 2699 2703 4449
 2630 2603 2631
 3455 3729 4411
 3018 4565 4566
 2926 3293 4384
 2811 4284 4590
 3731 3519 4450
 83 2611 4159
 55 2625 4165
 2989 3016 4313
 63 2614 4180
 3384 3366 4322
 2841 2844 4476
 4404 4819 4888
 3219 3835 4414
 4276 2952 4277
 3500 3186 4250
 2966 3235 4306
 3002 3325 4270
 3406 3071 4429
 4604 4 4714
 3612 4118 4728
 3334 4266 4979
 4031 4034 4660
 2959 2958 4461
 4409 3738 4410
 3728 3270 4413
 4053 4051 4107
 3514 4076 4477
 2962 4461 4565
 2650 2655 2656
 3240 3242 4268
 4297 3731 4557
 3550 3707 4390
 2636 2639 2640
 3127 3179 4359
 4376 4375 4677
 2634 81 4071
 3445 2843 4368
 4452 3757 4518
 2838 2840 4353
 3321 2798 4274
 3442 3510 4363
 2659 3929 4615
 3887 3497 4294
 2631 2603 2632
 2630 2631 2633
 3319 2883 4490
 4201 3056 4202
 3425 3755 4426
 84 83 4159
 4053 4107 4525
 3321 4274 4547
 2960 3745 4314
 3857 2644 4187
 2639 2606 4507
 4376 4640 4663
 2650 2656 2658
 2656 2655 2657
 3063 3062 4369
 2817 4590 4591
 2698 2699 4449
 2636 2640 2654
 4249 4489 4586
 3286 3455 4411
 2631 2632 3008
 2633 2631 3027
 3340 4446 4532
 2611 2638 4159
 2656 2657 2687
 2657 2655 4136
 3490 4381 4382
 2654 2640 2668
 3495 4389 4483
 3008 2632 3512
 2687 2657 2688
 3192 3219 4414
 2654 2668 2672
 3512 2632 3858
 2687 2688 2689
 2688 2657 3760
 2672 2668 2679
 2689 2688 2691
 2688 3760 4501
 2672 2679 3554
 2679 2668 3621
 2689 2691 2692
 3554 2679 3555
 2672 3554 3810
 2689 2692 2694
 2692 2691 2693
 3554 3555 3565
 2672 3810 4135
 2694 2692 2695
 2693 2691 3207
 3565 3555 3566
 2693 3207 3448
 2694 2695 2696
 3565 3566 3567
 2696 2695 2697
 3448 3207 3449
 3567 3566 3657
 2696 2697 2698
 3448 3449 3708
 3449 3207 3579
 3567 3657 3658
 3657 3566 3714
 3534 3618 3619
 3534 3518 3618
 2683 2684 2690
 3448 3708 3923
 3658 3657 3825
 2683 2690 2705
 2698 2697 2699
 2696 2698 2704
 3449 3579 3580
 3567 3658 4058
 3619 3618 3933
 3398 3676 3813
 3622 3616 4391
 3545 3645 4143
 3545 3644 3645
 3617 3710 4119
 3617 3430 3710
 3695 3693 3700
 2758 2757 2761
 3435 3563 3765
 3398 3399 3676
 3435 3536 3563
 3420 3568 3641
 3923 3708 3934
 3618 3518 4493
 3577 3345 3578
 3420 3388 3568
 3292 3938 3939
 3619 3933 3935
 3862 3528 3863
 2705 2690 2706
 2713 2712 2714
 3588 3100 4300
 3138 2783 3764
 2702 2700 3502
 3292 3109 3938
 3297 3345 3577
 3485 3484 3674
 3831 3697 4482
 3699 3697 3831
 3690 3401 3968
 2713 2714 2715
 2761 2757 2762
 3459 3458 3659
 3533 3531 3594
 2772 2773 4238
 3577 3578 3682
 2903 2902 2904
 3402 3401 3690
 4058 3658 4124
 3591 3355 3667
 3682 3578 3683
 2699 2697 2700
 2704 2698 3593
 3632 3520 3668
 3563 3536 3634
 2787 2788 2789
 3796 3963 4252
 2749 2750 2755
 3292 3939 3940
 3756 2827 3782
 3591 3667 3785
 2825 2827 3756
 3796 3821 3963
 3641 3568 4213
 3208 3355 3591
 3620 3497 3887
 2772 2760 2773
 2749 2744 2750
 3676 3399 4050
 3435 3765 4254
 3547 3497 3620
 2895 2897 2898
 2898 2897 2899
 2705 2706 2768
 3619 3935 3976
 3607 3253 4579
 2773 2787 3139
 3756 3782 3909
 2883 2882 2884
 2872 2871 2873
 3522 3788 3809
 3635 3265 3720
 3632 3668 3681
 3645 3644 3851
 3960 3674 4083
 2903 2904 2905
 2791 2792 2793
 3785 3667 4027
 3456 3615 3716
 2905 2904 2906
 3246 3420 3758
 3976 3935 4029
 3568 3775 3824
 2876 2875 2877
 2708 2707 2709
 3635 3720 3721
 3563 3634 4001
 2732 2753 4253
 2812 2815 2837
 2702 3502 3503
 3755 3637 3822
 3796 3820 3821
 3938 3109 4564
 3456 3433 3615
 3683 3898 3942
 3833 3834 4005
 2699 2700 2701
 2773 2775 2787
 3513 3468 3689
 2870 2872 3914
 3496 3265 3635
 3539 3701 3703
 3294 3507 3911
 3629 3630 3974
 3098 3096 3972
 3721 3720 4035
 3402 3690 3691
 2715 2714 3246
 2881 2880 2882
 2791 2793 2795
 2833 2832 2834
 2761 2762 2763
 3942 3898 4003
 3675 3674 3960
 3653 3841 3904
 2793 2792 2794
 3466 3647 3648
 2901 2902 2903
 3822 3637 3996
 3716 3615 3798
 3206 3227 3614
 3682 3683 4139
 3971 3604 4523
 3468 2842 3628
 3425 3637 3755
 3645 3851 4006
 2791 2790 2792
 2825 2824 2826
 2713 2715 2716
 2812 2814 2815
 3785 4027 4028
 2704 3593 3656
 3547 3620 3639
 3683 3578 3709
 3703 3701 3997
 3683 3709 3898
 3681 3668 4072
 3787 3593 3893
 3786 3500 3892
 2732 2730 2753
 3979 3980 4106
 2755 2750 2756
 3782 2827 4271
 3466 3552 3647
 74 73 2601
 3400 3504 3581
 2858 2859 2860
 3781 3795 3796
 3639 3620 3803
 3979 3594 3980
 3502 2700 4217
 2708 2709 2710
 2867 2866 2868
 3866 3397 3867
 3583 3643 3924
 3667 3355 3957
 2889 2891 3861
 3729 3627 3921
 3716 3798 4069
 3600 3830 3991
 2759 2760 2772
 3581 3504 3583
 2905 2906 2907
 3755 3822 3943
 3583 3504 3643
 3583 3924 3925
 3684 3527 3686
 3455 3627 3729
 3139 2787 4220
 3943 3822 3944
 2898 2899 2915
 2768 2706 2769
 3503 3518 3534
 2856 2855 2857
 2844 2845 2846
 2753 2730 3324
 2819 3397 3866
 2759 2756 2760
 3653 3840 3841
 2844 2846 4287
 3393 3602 3603
 3526 3650 3651
 3925 3924 3926
 2710 2709 2711
 2858 2857 2859
 3605 3604 3971
 3686 3527 3687
 3209 3737 4264
 3539 3540 3701
 3921 3627 3927
 2853 2854 2855
 3417 3572 3600
 3591 3785 3889
 3251 3253 3607
 4072 4073 4125
 2858 2860 3185
 2846 2847 2848
 2906 2904 3035
 3485 3674 3675
 2873 2871 2874
 4072 3668 4073
 2789 2790 2791
 4125 4073 4126
 3209 3736 3737
 2794 2792 2798
 2705 2768 3913
 2848 2850 2851
 2907 2906 2908
 2822 2824 2825
 3821 3820 4048
 2699 2701 2703
 2876 2877 2893
 2711 2709 2712
 3991 3830 4091
 2855 2854 3444
 2853 2855 2856
 2965 2964 2968
 3600 3829 3830
 2899 2897 2900
 2786 3090 4333
 3522 3368 3788
 2856 2857 2858
 2837 2815 3383
 2859 2857 2861
 2846 2848 2849
 2794 2798 2799
 2830 2832 2833
 3503 3502 3518
 3969 3446 3973
 2712 2709 4256
 3425 3426 3637
 3647 3839 3843
 2790 2788 3722
 2834 2832 2835
 3246 2714 3388
 3402 3691 3692
 3924 3643 4046
 3323 3608 4451
 2795 2793 2796
 2846 2845 2847
 3873 3874 3875
 3380 3338 4398
 3061 3060 3072
 2763 2762 2764
 3400 3581 3582
 2891 2890 2894
 3643 3504 4468
 3925 3926 4044
 2848 2847 2850
 2851 2850 2852
 3772 3594 3979
 2833 2834 2863
 2963 2964 2965
 3629 3974 4111
 3280 3273 4365
 2686 3367 3590
 3547 3639 3761
 2883 2884 2885
 2841 2843 2844
 2963 2962 2964
 2756 2750 3236
 2711 2712 2713
 2840 2839 2841
 3582 3581 3763
 2912 2910 3060
 2825 2826 2827
 3836 3666 3838
 2877 2875 2878
 3559 2893 3669
 2840 2841 2842
 3950 3951 4023
 3796 3795 3820
 3558 3638 3895
 2868 2866 3050
 3950 3463 3951
 4001 3634 4024
 3533 3594 3772
 2755 2756 2759
 3651 3650 3990
 4091 4092 4093
 3980 4229 4230
 4264 3737 4265
 3346 3094 4358
 3455 3469 3627
 3611 3346 4060
 2768 2769 2770
 2882 2880 3022
 2759 2772 2777
 2867 2869 2870
 3898 3709 4103
 2799 2798 2800
 3996 3637 4279
 3455 3454 3469
 4044 3926 4045
 2889 2890 2891
 4023 3951 4061
 2716 2715 2717
 4498 4499 4513
 3526 3419 3650
 2754 2749 4248
 2898 2915 3232
 2769 2706 2771
 3146 3147 3148
 2708 2710 2767
 3149 3147 4362
 3574 3773 3823
 3394 3398 4486
 2753 3324 3377
 2859 2861 2862
 3526 3651 3662
 2815 2814 2816
 3148 3147 3149
 3283 3278 4430
 3836 3838 3910
 3873 3493 3874
 2964 2962 4565
 4023 4061 4145
 2867 2868 2869
 4091 3830 4092
 3574 3515 3773
 2844 2843 2845
 3185 2860 3200
 3462 3463 3950
 2841 2839 2843
 2995 3001 3002
 3917 3598 3918
 2784 2774 2785
 3875 3874 3908
 61 60 2596
 3347 2893 3559
 2876 2893 3347
 2961 2962 2963
 3867 3397 4567
 2837 3383 3400
 3558 3443 3638
 2972 2971 2978
 77 76 2606
 2972 2978 2979
 3146 3145 3147
 3144 3145 3146
 57 56 2607
 2862 2865 3868
 3692 3691 3693
 3249 3005 3250
 3246 3388 3420
 2968 2964 3018
 3569 3508 4105
 2896 2894 3005
 2979 2978 2981
 3901 3902 4010
 75 74 2629
 3895 3638 4309
 3146 3148 3327
 2795 2796 2797
 2787 2775 2788
 3072 3060 3483
 3061 3072 3073
 65 64 2608
 3106 3378 3958
 3250 3005 3288
 2850 2847 3182
 2833 2863 3316
 71 70 2615
 2813 2796 3766
 2903 2905 3036
 2851 2852 2853
 52 53 2600
 2978 2971 2980
 2741 2734 3757
 3002 3001 3019
 2799 2801 2802
 2896 3005 3249
 2763 2764 2774
 2979 2981 2982
 3002 3019 3020
 2789 2788 2790
 3713 3575 3915
 2862 2861 2864
 3980 3594 4229
 2834 2835 2836
 2840 2842 3178
 3251 3250 3252
 3279 3271 4364
 3446 3382 4416
 2970 2971 2972
 2868 3050 3051
 3112 3111 3134
 2924 4326 4327
 2955 2958 2959
 3210 3211 4144
 3002 3020 3325
 2777 2772 3401
 3110 3111 3112
 2703 2701 2707
 2982 2981 3000
 3073 3072 3113
 2739 2741 2742
 3268 2754 3269
 2800 2798 3321
 55 54 2625
 3954 3730 4075
 3249 3250 3251
 3568 3388 3775
 2769 2771 2778
 3232 2915 3233
 4100 3687 4101
 50 51 2612
 2874 2871 4492
 2767 2710 2780
 2753 3377 3505
 3148 3149 3150
 2763 2774 2784
 3377 3324 3478
 3662 3651 3663
 3390 3719 3871
 2845 2843 3445
 2799 2800 2801
 2907 2909 3203
 3200 2860 3318
 3253 3252 3254
 3316 2863 3317
 3185 3200 3201
 3020 3019 3038
 2742 2744 2747
 3110 3108 3111
 2747 2754 3268
 3141 3113 3142
 2747 2749 2754
 3107 3108 3110
 3251 3252 3253
 3529 3376 3595
 3147 3145 3151
 3661 3730 3954
 2836 2835 3107
 3692 3693 3694
 3000 2981 3290
 2862 2864 2865
 3269 2754 3482
 2969 2956 3248
 2989 2991 3016
 3020 3038 3039
 2953 2949 2956
 3713 3915 4004
 3254 3252 3255
 3661 3954 3955
 3294 3112 3295
 3092 3091 3093
 3087 3088 3105
 2853 2852 2854
 3107 2835 3108
 3073 3113 3114
 3092 3093 3132
 3051 3050 3080
 3114 3113 3141
 2864 2861 3724
 3087 3071 3088
 2797 2796 2813
 2968 3018 3067
 3178 2842 3468
 3150 3152 3153
 3371 3373 4408
 3093 3091 3263
 2777 3401 3402
 3334 3333 3348
 52 2600 4183
 3150 3149 3152
 3332 3333 3334
 3134 3111 3624
 3153 3152 3154
 3144 3143 3145
 4011 4013 4122
 3110 3112 3294
 3654 3559 4000
 2976 2986 2995
 3165 3163 4396
 2800 3321 3725
 3039 3038 3062
 3391 3393 3805
 3339 3335 3376
 3114 3141 3143
 3232 3233 3234
 2778 2771 2779
 3233 2915 3501
 3261 3259 3291
 3287 2990 4347
 3334 3348 3349
 3662 3663 3664
 3200 3318 3329
 2774 2764 2776
 3132 3093 3133
 3260 3259 3261
 3114 3143 3144
 3185 3201 3592
 3256 3255 3257
 3258 3256 3259
 3316 3317 3331
 3143 3141 3199
 2968 3067 3407
 2865 2864 2866
 3261 3291 3335
 3039 3063 3064
 3529 3595 3660
 3349 3348 3458
 3694 3693 3695
 3003 3006 3010
 3528 3376 3529
 3340 3357 4446
 2854 2852 3315
 3068 3084 3085
 3039 3062 3063
 3085 3136 3137
 3000 3290 3516
 3064 3063 3065
 3546 2728 4302
 3137 3212 3213
 3132 3133 3205
 3065 3075 3076
 3154 3152 3193
 3335 3291 3452
 3076 3077 3078
 3258 3259 3260
 3178 3468 3513
 3551 3478 4054
 3085 3084 3136
 3137 3136 3212
 2767 2780 2781
 2778 2779 3183
 3331 3317 3332
 3076 3075 3077
 2970 2969 2971
 3349 3458 3459
 3159 3158 3160
 3078 3077 3102
 3051 3080 3081
 3294 3295 3507
 3087 3105 3542
 3137 3213 3340
 3242 3243 3244
 3258 3260 3262
 3065 3063 3074
 3088 3071 3406
 3081 3080 3127
 3664 3663 3665
 3694 3695 3696
 3244 3243 3245
 3329 3318 3343
 3234 3233 3527
 3205 3133 3206
 3105 3088 3423
 3725 3321 3726
 3349 3459 3460
 3078 3102 3103
 3157 3158 3159
 4089 3897 4090
 3213 3212 3511
 2781 3413 3414
 3244 3245 3247
 3340 3213 3341
 3019 3001 3487
 3261 3335 3339
 3090 3092 3135
 3696 3695 3697
 3407 3067 3408
 3332 3317 3333
 3242 3244 3447
 3331 3332 3508
 3030 3034 3646
 3262 3260 3338
 59 60 2595
 3254 3256 3258
 3698 3697 3699
 3078 3103 3131
 2778 3183 3314
 3132 3205 3297
 54 55 2619
 3529 3660 3711
 3154 3193 3491
 3183 2779 3210
 3103 3102 3116
 3127 3080 3170
 3286 3285 3453
 63 64 2614
 3103 3116 3117
 52 51 2622
 3159 3160 3161
 3161 3160 3163
 3516 3290 3541
 3460 3459 3461
 3665 3663 3666
 3070 3071 3087
 3379 3338 3380
 63 62 2620
 2937 2938 2939
 3127 3170 3179
 3163 3160 3181
 3000 3516 3517
 3484 3380 3486
 3428 3427 3429
 3081 3127 3128
 3164 3163 3165
 3429 3427 3543
 3441 3343 3609
 3222 3221 3392
 3454 3453 3679
 3065 3074 3075
 59 58 2621
 2935 2936 2937
 3157 3155 3158
 3353 3442 3599
 3407 3408 3519
 3599 3442 3625
 3194 3396 3466
 3262 3338 3379
 3331 3508 3509
 3395 3616 3622
 3530 3461 3531
 2940 2938 2942
 3075 3074 3106
 3224 3500 3514
 3286 3453 3454
 3306 3304 3326
 3371 3372 3373
 3389 3382 3438
 3435 3434 3536
 3545 3544 3644
 3106 3074 3302
 3105 3423 3424
 3206 3133 3226
 3168 3165 3230
 3234 3527 3684
 3284 3382 3389
 3379 3380 3484
 3 86 4184
 3506 3392 3561
 3102 3077 3301
 3161 3163 3164
 3117 3116 3118
 3491 3193 3492
 3117 3171 3298
 3314 3183 3320
 3379 3484 3485
 3509 3508 3569
 50 49 2624
 75 76 2616
 3679 3453 3680
 3106 3302 3378
 3396 3197 3550
 3206 3226 3227
 3254 3255 3256
 3405 3404 3472
 3460 3461 3530
 3538 3571 3587
 3696 3697 3698
 3492 3193 3495
 3351 3313 3352
 3492 3495 3539
 3178 3513 3733
 3297 3205 3345
 3219 3220 3344
 3417 3356 3467
 3373 3404 3405
 3519 3408 3520
 3409 3564 3570
 3426 3416 3427
 3436 3611 3612
 2941 2940 2943
 2944 2943 2945
 3117 3118 3171
 3436 3346 3611
 3409 3387 3564
 3539 3495 3540
 3210 2779 3211
 3491 3492 3493
 2932 2931 2933
 2937 2936 2938
 3408 3067 3410
 3234 3684 3685
 3281 3285 3286
 3329 3440 3562
 3418 3525 3556
 3429 3544 3545
 3519 3520 3521
 3298 3299 3364
 3378 3302 3421
 3314 3365 3753
 3465 3575 3576
 3530 3531 3533
 3217 3387 3409
 3473 3475 3479
 2939 2940 2941
 3118 3116 3204
 3298 3171 3299
 3337 3228 3433
 3245 3243 3342
 3510 3354 3515
 3371 3370 3372
 3373 3372 3404
 3426 3427 3428
 3531 3461 3532
 3510 3515 3573
 2932 2934 2935
 3192 3218 3219
 3223 3434 3435
 3310 3309 3362
 3310 3362 3363
 3314 3320 3365
 3440 3343 3441
 3411 3392 3506
 3460 3530 3586
 3166 3165 3168
 3219 3218 3220
 3337 3433 3456
 3374 3359 3735
 3438 3382 3446
 3572 3467 3672
 2944 2945 2946
 3189 3190 3386
 3296 3215 3481
 3329 3343 3440
 3360 3374 3375
 3403 3443 3558
 3192 3217 3218
 3220 3221 3222
 3466 3396 3552
 68 69 2617
 3350 3313 3351
 3378 3421 3422
 3429 3543 3544
 3544 3543 3832
 3267 3173 3431
 3179 3215 3296
 3220 3218 3221
 3360 3359 3374
 3363 3362 3464
 3375 3374 3476
 3477 3476 3652
 2939 2938 2940
 3176 3126 3177
 3176 3177 3228
 3192 3191 3217
 3309 3308 3311
 3357 3358 3439
 3171 3118 3202
 3339 3528 3862
 3464 3362 3524
 3363 3464 3465
 3364 3470 3471
 3465 3464 3575
 3573 3515 3574
 3521 3520 3632
 2935 2934 2936
 3190 3188 3191
 3222 3392 3411
 3403 3299 3443
 3451 3548 3549
 2932 2933 2934
 3164 3165 3166
 3169 3168 3187
 3194 3197 3396
 3267 3431 3432
 3350 3351 3457
 3364 3403 3470
 3375 3476 3477
 3417 3467 3572
 3477 3652 3653
 2930 2931 2932
 2945 2943 3300
 3081 3128 3208
 3215 3180 3216
 3217 3191 3387
 3227 3226 3356
 3364 3299 3403
 3442 3354 3510
 3373 3405 3560
 61 62 2618
 3228 3177 3229
 3227 3356 3417
 3353 3354 3442
 2937 2939 3079
 3189 3386 3494
 3282 3283 3284
 3340 3341 3357
 3357 3341 3358
 3404 3372 3633
 3475 3474 3636
 3612 3611 3613
 2781 3412 3413
 3224 3186 3500
 3284 3283 3382
 3852 3617 4221
 3190 3191 3192
 3266 3267 3480
 3305 3306 3307
 3337 3456 3589
 3351 3352 3353
 3353 3352 3354
 3405 3472 3473
 3312 3313 3350
 3358 3359 3360
 3284 3389 3390
 3307 3308 3309
 3358 3341 3359
 3411 3506 3538
 66 67 2597
 2781 2780 3412
 2941 2943 2944
 3538 3506 3571
 3166 3168 3169
 3415 3655 3738
 3425 3416 3426
 3536 3434 3642
 3473 3472 3474
 2930 2929 2931
 3176 3228 3337
 3307 3309 3310
 3415 3384 3655
 3385 3416 3425
 3412 3497 3547
 3412 2780 3497
 3189 3188 3190
 2936 2934 3498
 3169 3187 3188
 3370 3369 3553
 3390 3389 3537
 3473 3474 3475
 3616 3617 3852
 3212 3136 3214
 3174 3346 3436
 3222 3411 3523
 3229 3370 3371
 3525 3419 3526
 3161 3164 3167
 3229 3177 3369
 3398 3198 3399
 3305 3304 3306
 3738 3655 3844
 3229 3369 3370
 3169 3188 3189
 3266 3173 3267
 3307 3306 3308
 3208 3209 3355
 2747 2744 2749
 3451 3450 3548
 3418 3323 3419
 3179 3180 3215
 3385 3415 3416
 3312 3162 3313
 2929 2927 3488
 3223 3186 3224
 3208 3128 3209
 3418 3419 3525
 3172 3266 3489
 3322 3323 3418
 3179 3170 3180
 3180 3170 3596
 3303 3264 3304
 3303 3304 3305
 3953 4056 4150
 3121 3126 3176
 3062 3038 3066
 3090 3091 3092
 3156 3162 3312
 3322 3123 3323
 3339 3376 3528
 70 71 2613
 3223 3224 3434
 3130 3450 3451
 3450 3368 3522
 3174 3094 3346
 3282 3278 3283
 2797 2813 2838
 2928 2929 2930
 3281 3282 3285
 3747 3746 3748
 3070 3047 3071
 3026 3264 3303
 2797 2838 3289
 3385 3384 3415
 2776 3186 3223
 3122 3123 3322
 3242 3241 3243
 3172 3173 3266
 3394 3198 3398
 3030 3031 3034
 3195 3394 3395
 2836 3107 3109
 3395 3430 3616
 2776 2764 3186
 3616 3430 3617
 2765 3584 3585
 3281 3278 3282
 2838 2813 2839
 3387 3191 4424
 3031 3037 3122
 3129 3101 3225
 3156 3157 3162
 3194 3124 3197
 3367 3384 3385
 2928 2927 2929
 3277 3278 3281
 3013 3029 3030
 2771 2706 4262
 2926 2928 3293
 3274 3273 3280
 3068 3070 3084
 3122 3037 3123
 2838 2839 2840
 3130 3368 3450
 73 74 2598
 3273 3271 3279
 3013 3026 3029
 86 85 2602
 3030 3029 3031
 3061 3073 3499
 3367 3366 3384
 3058 3094 3174
 3121 3120 3126
 2979 2982 2983
 3395 3394 3430
 3099 3104 3125
 3181 3160 4393
 3268 3269 3270
 3958 3378 4444
 2995 2986 3001
 2830 2829 2831
 2836 3109 3292
 3195 3198 3394
 3095 3097 3601
 3172 3119 3173
 3272 3273 3274
 3745 3746 3747
 3277 3276 3278
 3031 3029 3037
 3275 3276 3277
 3017 3046 3490
 2926 2927 2928
 3095 3096 3097
 3068 3047 3070
 3026 3012 3264
 3240 3241 3242
 3046 3047 3068
 3156 3155 3157
 4 48 2604
 3377 3478 3551
 2891 2894 2895
 3528 3529 4378
 2958 3265 3496
 2983 2982 2984
 77 78 2610
 2765 3546 3584
 2907 2908 2909
 3592 3201 4147
 3099 3098 3101
 3097 3096 3098
 3272 3274 3275
 3440 3441 3677
 3104 3101 3129
 3115 3124 3194
 3275 3274 3276
 3097 3098 3099
 3153 3154 3155
 3896 3897 4089
 2945 3300 4475
 4128 3680 4129
 3099 3101 3104
 3130 3129 3368
 3838 3666 4002
 3272 3271 3273
 3077 3075 4399
 2744 2741 4452
 3558 3895 3896
 3270 3271 3272
 2926 2925 2927
 3017 3021 3046
 4043 3882 4081
 2830 2831 2832
 3953 3767 4056
 3094 3059 3095
 2955 2954 2958
 3879 3877 3880
 3679 3680 4128
 3195 3138 3198
 3104 3129 3130
 3013 3012 3026
 3046 3021 3047
 4152 3885 4156
 3366 2685 3606
 4109 4108 4110
 2686 3366 3367
 2925 2922 3015
 3095 3059 3096
 3083 3120 3121
 2992 2990 3287
 3240 2823 3241
 2997 3004 3017
 4160 3671 4161
 3202 3118 4425
 3040 3042 3058
 3120 3119 3172
 48 49 3964
 3901 3754 3902
 3193 3152 4389
 83 82 2611
 3870 3631 4062
 3896 3895 3897
 3745 3727 3746
 3009 3012 3013
 3872 3493 3873
 2991 2992 2993
 3058 3059 3094
 2719 2717 2731
 3090 3089 3091
 2914 2913 2916
 3034 3031 4388
 3742 3900 4082
 3665 3666 3836
 3673 4108 4109
 3713 4004 4040
 3661 3439 3730
 2993 2994 2997
 3156 3312 4441
 3978 3369 4332
 82 83 2609
 2885 2887 2892
 2742 2741 2744
 3312 3350 4310
 4031 3994 4034
 3270 3269 3271
 3491 3493 3872
 3982 3983 4079
 3982 3625 3983
 3153 3155 3156
 4013 4012 4014
 2997 3003 3004
 2877 2878 2879
 2958 2954 3265
 2923 2925 2926
 3884 4152 4153
 3646 3984 3985
 3673 3946 4108
 2765 2728 3546
 80 81 2599
 3587 3816 3992
 2703 2707 2708
 2752 2758 2782
 3707 3705 4077
 2739 2742 2743
 3623 4436 4437
 3409 3570 3883
 2989 2990 2991
 3550 3705 3707
 3916 3423 4042
 3115 2808 3124
 3017 3004 3021
 3600 3572 3829
 3686 3687 4100
 3946 3999 4039
 3042 3025 3140
 3323 3123 3608
 2828 2826 2829
 3058 3042 3059
 2828 2829 2830
 3587 3815 3816
 3951 3463 3977
 3804 3763 3981
 3599 3625 3903
 3884 3885 4152
 3452 3291 3792
 3024 3025 3040
 3576 3575 3713
 3675 3960 3961
 2988 2977 4478
 3003 2994 3006
 3995 4031 4032
 2733 2734 2739
 2899 2900 2901
 2752 2757 2758
 3347 3559 3654
 3989 3882 4043
 3462 3320 3463
 3742 3743 3900
 2704 3797 4498
 2599 81 4181
 3888 3305 4377
 3100 3138 3195
 2900 2897 4272
 3646 3034 3941
 3009 3007 3012
 2997 2994 3003
 3587 3571 3815
 3475 3636 3673
 3040 3025 3042
 3393 2678 3602
 2888 2886 3023
 3670 3767 3953
 2948 2951 3239
 3597 3598 3917
 2723 2721 3381
 3740 4080 4099
 3815 3571 3945
 3494 3818 3886
 3219 3344 3835
 3725 3726 3959
 3701 3540 3702
 3912 3671 4160
 3626 3661 4448
 3802 3196 3859
 3946 3636 3999
 3582 3763 3804
 2824 2823 3240
 2993 2992 2994
 2957 2970 3184
 3662 3664 4030
 2686 2685 3366
 2752 2751 2757
 2951 2954 2955
 3688 3949 4059
 3494 3817 3818
 2739 2734 2741
 2895 2894 2896
 3749 3748 3750
 3024 3040 3041
 3585 3584 3967
 2924 2916 4326
 3665 3836 3837
 3747 3749 3770
 3007 2998 3014
 3871 3719 3899
 2992 3287 4344
 2755 2759 4308
 3869 3631 3870
 3873 3875 3876
 2895 2896 2897
 3876 3875 3877
 2923 2922 2925
 2729 2732 2733
 2961 2959 2962
 3883 3570 3884
 3388 2714 4218
 3083 3119 3120
 3995 3994 4031
 3303 3305 3888
 3471 3671 3912
 3365 3320 3462
 3471 3670 3671
 3365 3462 3712
 2987 2988 2989
 3564 3387 3741
 3870 4062 4063
 3478 3324 3891
 3494 3386 3817
 3747 3748 3749
 3673 3636 3946
 2991 2990 2992
 3884 3570 3885
 2822 2821 2823
 2909 2908 2910
 3878 3877 3879
 3638 3754 3901
 3541 3734 3928
 3967 3584 4007
 3707 4077 4078
 2718 2717 2719
 4020 4015 4151
 3626 3439 3661
 3357 3439 3626
 3151 3145 4354
 3992 3816 3993
 3798 3615 3799
 3959 3726 3986
 2957 2969 2970
 2944 2946 2975
 4064 4063 4065
 3471 3470 3670
 2786 3089 3090
 48 4 2623
 3903 3625 3982
 2933 2931 2949
 2999 3007 3009
 3670 3470 3767
 3876 3877 3878
 3089 2785 3238
 2822 2823 2824
 3024 3011 3025
 3553 3369 3978
 3751 3768 4066
 3646 3941 3984
 3740 3784 4080
 3421 3739 3740
 3899 3719 4113
 2901 2900 2902
 2726 2728 2765
 3827 3805 4009
 2887 2888 2889
 3742 3741 3743
 3541 3290 3734
 3653 3652 3840
 2911 2913 2914
 4011 4012 4013
 2820 2818 2821
 2767 2781 4435
 3347 3654 3814
 3881 3882 3989
 3749 3750 3751
 2816 2814 2817
 2976 2977 2986
 3010 3011 3024
 3348 3333 4601
 3881 3879 3882
 3768 3826 3988
 3598 3361 3774
 2716 2717 2718
 2889 2888 2890
 3474 3472 3789
 2921 2923 2996
 3841 3840 3966
 2720 2719 2721
 3623 3516 4436
 2885 2884 2886
 3311 3308 3649
 3878 3879 3881
 2989 2988 2990
 3922 3771 4117
 3748 3746 3769
 3119 3082 4329
 3521 3632 3850
 3740 3739 3784
 3706 4085 4086
 3276 3274 4440
 2885 2886 2887
 3250 3288 4307
 3421 3302 3739
 2960 3727 3745
 3550 3704 3705
 2827 2826 2828
 3870 4063 4064
 2809 2808 3115
 2806 2804 3237
 3592 4147 4148
 2951 2950 2954
 3814 3654 3828
 3647 3552 3839
 3363 3465 3790
 3688 3573 3949
 2987 2977 2988
 3597 3361 3598
 3360 3375 3557
 2887 2886 2888
 2921 2922 2923
 2879 2878 2880
 2957 2956 2969
 2933 2949 2953
 3517 3516 3623
 2782 3100 3588
 3564 3741 3742
 2912 3060 3061
 4024 3634 4025
 3400 3383 3504
 3441 3609 3610
 3100 2783 3138
 4019 4021 4067
 2820 2821 2822
 3333 3317 4372
 3993 3994 3995
 3550 3197 3704
 2966 2973 3235
 3706 4086 4088
 3467 3356 3819
 3840 3652 3842
 2807 2809 2810
 3768 3750 3826
 4016 4017 4018
 3932 3936 4037
 3517 3631 3869
 3702 3781 3975
 3751 3750 3768
 3629 3605 3630
 4015 4016 4290
 3738 3844 4057
 2948 2950 2951
 3286 3454 3455
 2773 2760 2775
 3849 3848 4070
 2722 2721 2723
 2782 2758 2783
 2718 2719 2720
 3993 3816 3994
 3011 3006 3744
 2816 2818 2819
 3986 3726 3987
 3685 3684 3848
 2729 2727 2730
 3010 3006 3011
 3630 3605 4698
 3510 3573 3688
 2909 2910 2911
 2819 2820 3397
 3706 3689 4085
 3638 3443 3754
 2684 2685 2686
 2986 2977 2987
 3424 3423 3916
 4025 3634 4481
 2802 3361 3597
 2832 2831 4280
 4024 4025 4026
 4013 4015 4020
 3752 3004 4298
 3592 4148 4149
 2807 2806 2808
 3771 3635 4263
 2985 2999 3086
 2831 2829 3864
 2807 2808 2809
 3245 3342 3952
 2720 2722 2766
 2999 2998 3007
 2724 2725 2726
 3083 3082 3119
 3850 3632 4479
 2819 2818 2820
 3517 3623 3631
 2733 2732 2734
 2729 2730 2732
 2911 2910 2912
 3932 3779 3936
 3685 3848 3849
 2973 2974 2976
 2816 2817 2818
 3698 3699 3846
 3659 3458 4495
 2728 2727 2729
 4019 4018 4021
 3521 3850 3956
 4016 4018 4019
 2726 2727 2728
 3199 3141 4439
 4016 4014 4017
 4498 3797 4499
 2720 2721 2722
 56 57 2605
 3702 3540 3780
 2953 2956 2957
 2918 2916 2924
 4010 3902 4011
 3844 3655 3845
 3890 3771 3922
 3556 3525 3806
 2948 2947 2950
 3390 3537 3719
 3556 3807 4114
 3391 3805 3827
 3794 3569 3998
 3496 3635 3771
 4021 4018 4022
 2921 2920 2922
 3174 3436 3808
 2966 2967 2973
 2870 2871 2872
 3802 3859 4528
 2946 2947 2948
 3759 3577 4118
 2786 2785 3089
 2960 2961 3727
 3702 3780 3781
 2810 2811 2812
 3777 3457 3778
 4011 3902 4012
 3513 3689 3706
 2724 2723 2725
 2985 2998 2999
 3350 3457 3777
 2805 2806 2807
 2960 2959 2961
 3556 3806 3807
 2955 2959 2960
 2726 2725 2727
 3778 3779 3932
 3496 3771 3890
 2911 2912 2913
 2810 2809 2811
 2870 2869 2871
 3438 3446 3969
 2745 2738 2748
 3839 3552 3919
 3778 3457 3779
 2805 2804 2806
 2946 2945 2947
 2985 2984 2998
 3853 3787 3854
 85 86 2603
 3821 4048 4049
 2701 2700 2702
 3777 3778 3793
 3656 3593 3787
 3452 3792 4041
 2812 2811 2814
 2782 2783 3100
 2902 3723 4247
 2966 2965 2967
 4015 4014 4016
 2603 86 4186
 2976 2974 2977
 2963 2965 2966
 2722 2723 2724
 4013 4014 4015
 3906 3907 4115
 3297 3577 3759
 2746 2751 2752
 2803 2801 2804
 2802 2803 3361
 3781 3780 3795
 2746 2745 2751
 3407 3519 3731
 3800 3196 3802
 2983 2984 2985
 3268 3270 3728
 3021 3004 3752
 3486 3605 3629
 3209 3128 3736
 3711 3660 4131
 2784 2785 2786
 3851 4008 4074
 2873 2875 2876
 2784 2786 3437
 2919 2920 2921
 3906 3732 3907
 2684 2682 2685
 2803 2804 2805
 3514 3937 4076
 3451 3549 3678
 3580 3855 3856
 2802 2801 2803
 2737 2745 2746
 3452 4041 4047
 3833 3549 3834
 3391 2678 3393
 3109 3107 4370
 3656 3787 3853
 3503 3534 3535
 2950 2947 2952
 3056 3082 3083
 2973 2967 2974
 3678 3549 3833
 3082 3055 4209
 3851 3644 4008
 3509 3569 3794
 2902 2900 3723
 3711 4131 4132
 2917 2916 2918
 2873 2874 2875
 3675 3961 3962
 2865 2866 2867
 3257 3255 3732
 3694 3696 3791
 3257 3732 3906
 2704 3656 3797
 3937 3786 4102
 2914 2916 2917
 3507 3295 3947
 2831 3864 3865
 3057 3196 3800
 3518 3502 3894
 2919 2918 2920
 3711 4132 4134
 2881 2882 2883
 2917 2919 3328
 2737 2738 2745
 3801 3800 4116
 3514 3500 3786
 3698 3846 3847
 2879 2880 2881
 3458 3348 3640
 3379 3485 3715
 3057 3800 3801
 3486 3604 3605
 2917 2918 2919
 2738 2736 2740
 3514 3786 3937
 2683 2682 2684
 3580 3579 3855
 2674 2678 3391
 3783 2674 4208
 3486 3380 3604
 3056 3055 3082
 2881 2883 3319
 3057 3054 3196
 2735 2737 4210
 3855 3579 4502
 3507 3947 3948
 2737 2736 2738
 2681 2682 2683
 2674 2664 2678
 2663 2674 3783
 3053 3055 3056
 3055 3054 3057
 2735 2736 2737
 3054 3049 4198
 2663 2664 2674
 3053 3054 3055
 2670 2681 3860
 2681 2671 2682
 2735 2677 2736
 3336 4199 4200
 3053 3049 3054
 3175 3052 3905
 2663 2652 2664
 2670 2671 2681
 2671 2651 3762
 3776 3811 3812
 3336 2676 4199
 2677 2667 3231
 2676 2677 2735
 3048 3052 3175
 3052 3049 3053
 2670 2651 2671
 2662 2652 2663
 3930 3931 4038
 3776 3718 3811
 2675 2676 3336
 2676 2667 2677
 3048 3049 3052
 2648 2652 2662
 2649 2651 2670
 3930 2665 3931
 2675 2667 2676
 3717 3718 3776
 3048 3045 3049
 2648 2649 2652
 2649 2646 2651
 3929 2665 3930
 2661 2667 2675
 3717 2680 3718
 3044 3045 3048
 3045 3033 4538
 2648 2646 2649
 2659 2665 3929
 2669 2680 3717
 2680 2673 3970
 2661 2666 2667
 3032 3330 4519
 3043 3044 3069
 3044 3033 3045
 2592 2646 2648
 2659 2645 2665
 2647 2644 3857
 2660 2661 4517
 2669 2673 2680
 2661 2642 2666
 3032 3043 3330
 3043 3033 3044
 2592 2628 2646
 2643 2645 2659
 2645 2644 2647
 2669 2653 2673
 2660 2642 2661
 2638 2660 4159
 2608 4173 4174
 2608 64 4173
 3032 3033 3043
 2592 67 2628
 3868 2865 4491
 2643 2644 2645
 2963 2966 4306
 3084 4385 4386
 2641 2653 2669
 2638 2642 2660
 3071 3047 4429
 2976 2995 4269
 4283 3648 4285
 3920 2637 4130
 3032 3028 3033
 2643 2601 2644
 4273 2794 4311
 67 66 2628
 4470 4471 4596
 68 67 2592
 2995 3002 4270
 3285 3282 4305
 3649 4401 4402
 3084 3070 4385
 3629 4111 4226
 4203 3589 4204
 2641 2635 2653
 2638 2641 2642
 4169 58 4170
 3068 3085 4379
 3396 3550 4390
 74 2601 2629
 51 52 4183
 81 82 4181
 86 2602 4184
 2604 48 3964
 86 3 4186
 3993 3995 4164
 3669 2893 4464
 4282 3648 4283
 64 63 4173
 2987 2989 4313
 3723 4272 4487
 3767 3470 4334
 2591 2637 3920
 3027 3028 3032
 4345 4109 4346
 3497 2780 4294
 4332 3126 4516
 3421 3740 4514
 3360 3557 4335
 3774 4292 4293
 2856 2858 4456
 3187 3168 4404
 4611 3622 4612
 2921 2996 4494
 3789 3472 4443
 2629 2601 2643
 2604 3964 3965
 4017 4014 4593
 4246 3232 4543
 3417 3600 4465
 4374 4375 4376
 2855 3444 4295
 2955 2960 4314
 3547 3761 4466
 3074 3063 4369
 3017 3490 4382
 3027 3032 4519
 3646 3985 4383
 3913 2768 4472
 3490 4380 4381
 3409 3883 4407
 3774 3361 4292
 2651 2646 4195
 4187 72 4534
 3033 3028 4538
 4467 3756 4567
 2661 2675 4517
 2667 2666 3231
 2676 2735 4199
 3049 3045 4198
 3196 3054 4198
 2674 3391 4208
 2737 2746 4210
 3055 3057 4209
 3568 3824 4213
 2787 2789 4220
 2714 2712 4218
 3100 3195 4300
 3594 3531 4229
 2700 2697 4217
 3617 4119 4221
 2904 2902 4247
 2773 3139 4238
 3616 3852 4391
 3781 3796 4252
 3223 3435 4254
 2706 2690 4262
 3401 2772 4238
 3577 3682 4118
 3605 3971 4698
 2749 2755 4248
 2709 2707 4256
 3082 4209 4329
 3697 3695 4482
 2753 3505 4253
 2835 2832 4280
 3355 3209 4264
 3863 3528 4378
 3635 3721 4263
 3637 3426 4279
 2696 2704 4498
 2827 2828 4271
 2846 2849 4287
 2897 2896 4272
 3090 3135 4333
 4013 4020 4122
 3004 3003 4298
 3419 3323 4451
 3638 3901 4309
 2728 2729 4302
 2759 2777 4308
 3273 3279 4365
 4016 4019 4290
 3252 3250 4307
 4060 3346 4358
 3369 3177 4332
 3094 3095 4358
 2916 2913 4326
 3278 3276 4430
 3373 3560 4408
 3382 3283 4416
 3274 3280 4440
 2741 3757 4452
 3230 3165 4396
 3482 2754 4248
 3305 3307 4377
 3529 3711 4378
 3191 3188 4424
 3153 3156 4441
 3160 3158 4393
 3301 3077 4399
 3163 3181 4396
 3018 2964 4565
 2990 2988 4347
 3031 3122 4388
 3495 3193 4389
 3147 3151 4362
 3075 3106 4399
 3152 3149 4389
 3118 3204 4425
 3312 4310 4441
 3271 3269 4364
 3516 3541 4436
 3378 3422 4444
 3661 3955 4448
 3741 3387 4424
 2994 2992 4344
 3173 3119 4329
 3357 3626 4446
 3145 3143 4354
 3350 3777 4310
 2831 3865 4280
 3333 4372 4601
 3317 2863 4372
 2781 3414 4435
 3398 3813 4486
 3430 3394 4486
 2734 2732 4253
 2947 2945 4475
 3683 3942 4139
 4117 3771 4263
 3141 3142 4439
 3634 3536 4481
 3504 3383 4468
 3632 3681 4479
 2871 2869 4492
 4151 4015 4290
 3109 4370 4564
 2750 2744 4452
 3437 2786 4333
 3723 2900 4272
 2977 2974 4478
 3107 3110 4370
 3518 3894 4493
 3640 3348 4601
 3604 3380 4398
 3775 3388 4218
 3894 3502 4217
 3458 3640 4495
 3262 3379 3715
 2654 2672 4135
 3599 3903 4560
 2691 2688 4501
 2794 2799 4311
 3841 3966 4526
 3648 3647 4285
 4382 4381 4445
 2978 2980 4357
 2899 2901 4191
 3760 2657 4136
 3622 4391 4612
 3689 3468 4243
 2993 4382 4445
 3080 3050 4228
 3486 3629 4226
 2908 2906 4289
 3050 2866 4227
 4323 2821 4324
 3300 4417 4418
 4280 3865 4542
 2893 2877 4464
 4001 4024 4792
 3171 3202 4387
 3007 3014 4330
 3494 3886 4421
 3963 3821 4953
 3470 3403 4334
 3039 3064 4341
 3358 3360 4335
 2690 2684 4260
 3740 4099 4514
 3422 3421 4514
 2858 3185 4456
 3168 3230 4404
 3779 3457 4419
 4470 3236 4471
 2919 2921 4494
 2857 2855 4295
 3649 4400 4401
 3600 3991 4465
 3227 3417 4465
 4114 3807 4571
 4288 2908 4289
 3826 3750 4442
 3410 3067 4237
 3972 3096 4463
 2889 3861 4462
 3673 4109 4345
 3344 3220 4415
 4269 2995 4270
 3030 3646 4383
 3570 3564 4350
 2768 2770 4472
 2682 2671 4212
 3361 2803 4292
 2646 2628 4195
 3762 2651 4195
 63 2620 4173
 4317 3669 4318
 4517 2675 4522
 4181 2609 4182
 2612 51 4183
 82 2609 4181
 4210 2746 4211
 4213 3824 4214
 3482 4248 4249
 4122 4020 4123
 4326 2913 4328
 4372 2863 4373
 4391 3852 4735
 4493 3894 4643
 3775 4218 4219
 2799 2802 4311
 2726 2765 4337
 2981 2978 4357
 4161 3671 4453
 4432 3888 4433
 4374 3159 4375
 3468 3628 4243
 2638 2635 2641
 3170 3080 4228
 3297 3759 4338
 3183 3210 4366
 2866 2864 4227
 3051 3081 4474
 3066 3038 4447
 3115 3194 4281
 4492 2869 4563
 2806 3237 4301
 3300 2943 4417
 3299 3171 4387
 3816 3815 4454
 3012 3007 4330
 3292 3940 4373
 3760 4136 4137
 3471 3912 4392
 3189 3494 4421
 4426 3755 4573
 2684 2686 4260
 3473 3479 4420
 4441 4310 4521
 2648 2662 4508
 3347 3814 4239
 2982 3000 4371
 4419 3599 4560
 65 2608 4185
 3750 3748 4442
 2631 3008 3027
 3314 3753 4438
 4119 3710 4120
 3220 3222 4415
 3885 3570 4350
 3564 3742 4350
 2671 3762 4212
 2685 2682 4212
 4247 3723 4632
 2765 3585 4337
 2724 2726 4337
 2670 3860 4197
 3671 3670 4453
 3320 3183 4366
 3182 2847 4459
 3132 3297 4338
 3213 3511 4403
 3081 3208 4474
 3038 3019 4447
 2808 2806 4301
 2943 2940 4417
 2860 2859 4319
 3994 3816 4454
 3364 3471 4392
 3315 2852 4455
 2876 3347 4239
 2592 2648 4508
 3000 3517 4371
 2984 2982 4371
 2705 3913 4207
 2811 2809 4284
 2649 2670 4197
 3121 3176 4203
 3264 4330 4509
 2847 2845 4459
 3481 4394 4395
 3498 2934 4423
 2859 2862 4319
 3318 2860 4319
 4591 4283 4656
 3583 3925 4304
 2852 2850 4455
 4379 3085 4532
 3557 4080 4943
 2683 2705 4207
 2910 2908 4288
 2727 2725 4469
 3037 3029 4432
 2934 2933 4423
 3237 2804 4291
 3029 3026 4432
 2804 2801 4291
 3076 3078 4189
 3078 3131 4189
 4260 3590 4261
 2801 2800 4291
 3026 3303 4432
 2800 3725 4291
 2933 2953 4423
 3303 3888 4432
 3738 4057 4410
 4281 3648 4282
 3891 3324 4469
 2730 2727 4469
 2591 79 2626
 3060 2910 4288
 2681 2683 4207
 3581 3583 4304
 2850 3182 4455
 2862 3868 4319
 2845 3445 4459
 3324 2730 4469
 2652 2649 4197
 3483 3060 4288
 3860 2681 4207
 3806 4303 4614
 2873 2876 4239
 3517 3869 4371
 3763 3581 4304
 4389 4362 4483
 3050 4227 4228
 3298 3364 4392
 4034 3994 4454
 2940 2942 4417
 3124 2808 4301
 3341 3213 4403
 3735 3359 4403
 3019 3487 4447
 2617 69 4177
 70 2613 4177
 3463 3320 4366
 3208 3591 4474
 2628 66 4185
 3092 3132 4338
 4507 2629 4537
 4298 3010 4515
 3670 3953 4453
 2664 2652 4197
 2675 3336 4522
 2746 2752 4211
 2913 2912 4328
 2863 2834 4373
 3215 3216 4394
 3606 2685 4212
 2778 3314 4438
 2770 2769 4438
 3742 4082 4350
 3448 3923 4643
 3214 3136 4386
 3222 3523 4415
 4464 2879 4511
 3748 3769 4442
 3405 3473 4420
 2872 2873 4239
 3559 3669 4317
 4258 3433 4259
 2686 3590 4260
 3828 4360 4361
 2985 3086 4480
 4578 4293 4597
 3169 3189 4421
 3443 3299 4387
 3194 3466 4281
 3264 3012 4330
 3359 3341 4403
 3591 3889 4474
 3977 3463 4366
 3135 3092 4338
 2864 3724 4227
 66 65 4185
 3596 3170 4228
 3298 4392 4506
 3290 2981 4357
 2802 3597 4311
 50 2624 4166
 2803 2805 4292
 3481 3215 4394
 3475 3673 4345
 2887 2889 4462
 3013 3030 4383
 2769 2778 4438
 3654 4000 4360
 4211 3588 4536
 3042 3140 4463
 3096 3059 4463
 3887 4294 4336
 3136 3084 4386
 2861 2857 4295
 2591 2626 2637
 3457 3351 4419
 3353 3599 4419
 3614 3227 4465
 3328 2919 4494
 3439 3358 4335
 3560 3405 4420
 3020 3039 4341
 2906 3035 4289
 3894 4500 4643
 3027 3008 3028
 3185 3592 4456
 4205 4206 4710
 4000 3559 4317
 4390 3707 4558
 69 68 4508
 3403 3558 4334
 3166 3169 4421
 4096 3677 4580
 2983 2985 4480
 3754 3443 4387
 3466 3648 4281
 68 2592 4508
 2877 2879 4464
 4244 3628 4245
 3363 3790 4460
 4083 3674 4226
 3484 3486 4226
 4542 3865 4637
 3167 3164 4422
 4116 3800 4652
 3117 3298 4506
 3131 3103 4506
 4305 3871 4554
 3285 4305 4554
 3579 4501 4502
 3734 3290 4357
 75 2629 4507
 2606 76 4507
 3647 3843 4285
 4300 3622 4611
 2643 2659 4537
 3590 4426 4573
 2637 2626 4572
 4522 3336 4679
 4229 3532 4231
 4416 4430 4431
 4378 4134 4604
 4198 3045 4538
 4199 2735 4210
 3859 3196 4198
 3057 3801 4209
 3391 3827 4208
 4218 2712 4256
 3531 3532 4229
 3035 2904 4247
 3968 3401 4238
 2776 3223 4254
 3975 3781 4252
 3957 3355 4264
 3108 2835 4280
 4248 2755 4308
 3195 3395 4300
 3426 3428 4279
 2896 3249 4272
 3003 3010 4298
 2729 2733 4302
 3255 3252 4307
 3177 3126 4332
 3431 3173 4329
 3695 3700 4482
 3149 4362 4389
 3006 2994 4344
 3106 3958 4399
 3650 3419 4451
 3143 3199 4354
 3307 3310 4377
 3150 3153 4441
 4416 3283 4430
 3095 3601 4358
 3188 3187 4424
 4347 2988 4478
 3269 3482 4364
 4430 3276 4440
 3710 3430 4486
 3110 3294 4370
 3757 2734 4253
 3236 2750 4452
 2952 2947 4475
 3711 4134 4378
 3536 3642 4481
 3604 4398 4523
 2697 2695 4217
 2694 2696 4498
 3217 3409 4407
 3221 3218 4407
 3207 2691 4501
 4363 3688 4559
 2628 4185 4195
 4380 4379 4532
 2997 3017 4382
 3009 3013 4383
 3702 3975 4257
 3997 3701 4257
 3479 3475 4345
 2892 2887 4462
 3302 3074 4369
 3327 4642 4713
 3412 3547 4466
 3828 3654 4360
 2951 2955 4314
 3059 3042 4463
 2615 70 4533
 3472 3404 4443
 4411 3729 4412
 2739 2743 4299
 3724 2861 4295
 4274 3722 4547
 3351 3353 4419
 3336 4200 4679
 3879 3880 4316
 4081 3882 4316
 3743 3741 4540
 2780 2710 4294
 3620 3887 4242
 3592 4149 4456
 3730 3439 4335
 3325 3020 4341
 4306 3235 4546
 4763 3963 4953
 3558 3896 4334
 3835 4437 4930
 4012 3902 4561
 2807 2810 4531
 4407 3883 4552
 3552 3396 4390
 69 70 4177
 3046 3068 4379
 2650 2658 4622
 3236 4452 4518
 3894 4217 4500
 2817 2814 4590
 3070 3087 4385
 3257 3906 4872
 3390 3871 4305
 3282 3284 4305
 3310 3363 4460
 4713 3793 4719
 3674 3484 4226
 2690 4260 4262
 3490 4379 4380
 3304 3264 4509
 3164 3166 4422
 2986 2987 4312
 3487 3001 4312
 4416 4431 4520
 3800 3802 4652
 2851 4562 4600
 2973 2976 4269
 2639 4507 4537
 61 2596 4175
 2620 62 4175
 3103 3117 4506
 4312 2987 4313
 3047 3021 4429
 62 63 4180
 2961 2963 4306
 4182 2609 4871
 2870 3914 4491
 2865 2867 4491
 4327 4326 4581
 3190 3192 4414
 3137 3340 4532
 3987 3726 4547
 3454 3679 4286
 4141 4092 4626
 3294 3911 4370
 3744 3006 4344
 3732 3255 4307
 3395 3622 4300
 3579 3207 4501
 3685 3849 4624
 3281 3286 4411
 3218 3217 4407
 2879 2881 4511
 3593 2698 4449
 4369 3062 4556
 4147 3829 4670
 69 4508 4533
 4096 3214 4999
 2723 3381 4568
 2793 2794 4273
 3766 2796 4273
 2993 2997 4382
 4326 4328 4581
 3573 3574 4331
 3166 4421 4422
 3701 3702 4257
 71 2615 4534
 3707 4078 4558
 2869 2868 4563
 2851 2853 4562
 3590 3367 4426
 3385 3425 4426
 3739 3302 4369
 3014 2998 4551
 3413 3412 4466
 3239 2951 4314
 3221 4407 4552
 4098 2621 5014
 3561 3392 4552
 2883 2885 4490
 2633 3027 4519
 3609 3343 4544
 3767 4334 4549
 3404 3633 4443
 2733 2739 4299
 3086 2999 4553
 2782 3588 4211
 2836 3292 4373
 3061 3499 4328
 73 72 4187
 3942 4003 4806
 4230 4229 4231
 3625 3442 4363
 2790 3722 4274
 2798 2792 4274
 2840 3178 4353
 4239 3814 4541
 2813 3766 4368
 2843 2839 4368
 2775 4470 4596
 3741 4424 4540
 3882 3879 4316
 2710 2711 4294
 3803 3620 4242
 3010 3024 4515
 3728 4609 4673
 4521 4310 4642
 3128 3127 4359
 2856 4456 4562
 3769 3746 4546
 2629 2643 4537
 3602 2678 4539
 4596 4471 4672
 4508 2662 4533
 3584 3546 4577
 3211 2779 4595
 2771 4262 4595
 4243 3628 4244
 2991 2993 4445
 4483 4362 4484
 4335 3557 4548
 3829 4147 4626
 2752 2782 4211
 2834 2836 4373
 2912 3061 4328
 3754 4387 4561
 4366 3210 4550
 3902 3754 4561
 2641 2669 4167
 4825 4321 4926
 2805 2807 4531
 4383 3985 4553
 3960 4083 4121
 2837 3400 4578
 3919 3552 4390
 4314 3745 4555
 76 75 4507
 2974 2967 4557
 3490 3046 4379
 59 2621 4178
 2596 60 4178
 3642 3434 4477
 3224 3514 4477
 3437 4525 4980
 4106 2884 4927
 4304 3925 4530
 3747 3770 4555
 3112 3134 4342
 4469 2725 4568
 3270 3272 4413
 4197 3860 4539
 4744 4065 4775
 3051 4474 4563
 3234 3685 4543
 4457 3866 4468
 2958 3496 4461
 2928 2930 4574
 2849 2848 4600
 3242 3447 4268
 2666 2642 4167
 2814 2811 4590
 3087 3542 4385
 4293 4292 4531
 3284 3390 4305
 3680 3453 4554
 3677 3441 4580
 3402 3692 4489
 4449 2703 4569
 3420 3641 4241
 4287 4245 4476
 3893 4449 4569
 3306 3326 4400
 3649 3308 4400
 70 69 4533
 4799 3912 4958
 3237 4291 4545
 4177 2613 4619
 3186 2764 4250
 4036 4278 4512
 2984 4371 4551
 4292 2805 4531
 4291 3725 4545
 3609 4544 4639
 3318 4319 4544
 4478 2974 4557
 2644 2601 4187
 2756 3236 4470
 2775 2760 4470
 4087 4085 4695
 3326 3304 4509
 3001 2986 4312
 4531 2810 4597
 4273 4311 4599
 3267 3432 4405
 2842 2841 4476
 3235 2973 4269
 3655 3384 4322
 3354 3352 4640
 3773 3515 4640
 3021 3752 4429
 4319 3868 4544
 3891 4469 4568
 3540 3495 4483
 4437 3817 4930
 3519 3521 4450
 3727 2961 4306
 2923 2926 4384
 2867 2870 4491
 4281 4282 4284
 4345 4346 4588
 4377 3310 4460
 2664 4197 4539
 4474 3889 4563
 3563 4001 4215
 3386 3190 4414
 2713 2716 4336
 4277 2952 4278
 4371 3869 4551
 3126 3120 4516
 3172 3489 4516
 3239 4314 4555
 3545 4143 4576
 3428 3429 4576
 2812 2837 4597
 4433 3888 4630
 2694 4498 4513
 3085 3137 4532
 4284 4282 4590
 3210 4144 4550
 3009 4383 4553
 3726 3321 4547
 3469 3454 4286
 4230 4231 4232
 3427 3416 4409
 4068 2942 4955
 2701 2702 4496
 2663 3783 4617
 3597 3917 4599
 3915 4112 4893
 2645 2647 4192
 4337 4145 5016
 3931 2665 4192
 3977 4366 4550
 4056 3767 4549
 3730 4335 4548
 3277 3281 4411
 4387 3202 4561
 2881 3319 4511
 2733 4299 4302
 2611 2635 2638
 3893 3593 4449
 4456 4149 4562
 4714 2604 4945
 2742 2747 4296
 3268 3728 4296
 2819 3866 4457
 2815 2816 4457
 80 79 2591
 2608 4174 4583
 2872 4239 4541
 4800 4548 4943
 2725 2723 4568
 2616 76 4176
 77 2610 4176
 3925 4044 4530
 2708 2767 4569
 3549 3548 4222
 2796 2793 4273
 3588 4300 4611
 3265 2954 4276
 3809 4655 4931
 3837 4194 4837
 3863 4378 4604
 3818 3817 4782
 3949 3573 4331
 4278 2952 4475
 3062 3066 4556
 4334 3896 4549
 4245 3628 4476
 4242 4621 4653
 4148 4147 4670
 4261 3590 4573
 3981 3763 4608
 3509 3794 4641
 2868 3051 4563
 2853 2856 4562
 3367 3385 4426
 2998 2984 4551
 62 61 4175
 2618 62 4180
 4472 2770 4570
 4421 3886 4422
 2898 3232 4246
 2891 2895 4246
 4471 3236 4518
 3246 3758 4473
 2717 2715 4473
 3392 3221 4552
 2885 2892 4490
 3739 4369 4556
 2602 4517 4522
 2591 3920 4071
 3446 4416 4520
 3343 3318 4544
 4435 3893 4569
 4545 4721 4766
 3779 4419 4560
 3725 3959 4545
 2692 2693 4500
 2999 3009 4553
 4263 3721 4575
 4054 3478 4618
 3940 4372 4373
 3025 3011 4458
 3480 4405 4406
 3692 3694 4586
 4075 3730 4548
 3983 3625 4363
 2792 2790 4274
 3178 3733 4353
 3615 3433 4258
 3037 4432 4433
 4543 3685 4624
 2839 2813 4368
 3275 3277 4412
 3206 3614 4584
 3345 3205 4584
 4219 4218 4256
 4249 4248 4308
 3722 4596 4672
 2702 3503 4587
 4308 2777 4489
 3024 3041 4515
 2666 4167 4529
 3688 4059 4559
 3736 3128 4359
 3722 2788 4596
 3784 3739 4556
 4599 3917 4646
 3746 3727 4546
 4451 3608 4631
 2678 2664 4539
 4431 4430 4440
 3870 4064 4627
 3863 4604 4714
 4202 4203 4204
 4007 3584 4577
 2779 2771 4595
 4210 4211 4536
 2785 2774 4275
 3016 2991 4445
 3727 4306 4546
 72 71 4534
 4259 3371 4408
 4084 3687 5000
 4115 4832 4894
 4293 4531 4597
 3277 4411 4412
 3896 4089 4549
 4214 3247 4793
 57 58 4169
 4562 4149 4600
 3729 3921 4609
 4258 4259 4408
 3777 3793 4642
 3983 4363 4559
 4501 3760 4502
 4251 2751 4602
 4336 2716 4621
 3400 3582 4578
 4260 4261 4262
 3526 3662 4303
 3755 3943 4573
 3659 4495 4524
 4374 4376 4663
 4360 4000 4827
 3608 3123 4433
 4286 3679 4650
 3815 3945 4619
 4111 4083 4226
 78 79 4691
 2601 73 4187
 3434 3224 4477
 4256 2707 4496
 3884 4153 4629
 3202 4425 4593
 4236 3410 4237
 2718 2720 4653
 2823 2821 4323
 4710 3812 4790
 3745 3747 4555
 3565 3567 4674
 3295 3112 4342
 3331 3509 4427
 4294 2711 4336
 4102 3786 4662
 3498 4068 4955
 3766 4273 4599
 3272 3275 4413
 3919 4390 4558
 4418 4417 4589
 2965 2968 4297
 3407 3731 4297
 3232 3234 4543
 4488 3962 4633
 2809 3115 4284
 3914 2872 4541
 3496 3890 4461
 3293 2928 4574
 3762 4195 4583
 2848 2851 4600
 3973 3446 4520
 3327 3148 4521
 4427 3509 4641
 2969 3248 4651
 2980 2971 4651
 3453 3285 4554
 3441 3610 4580
 2673 4748 4772
 3342 3243 4325
 4271 4427 4641
 3115 4281 4284
 2777 3402 4489
 4092 3830 4626
 2825 3756 4467
 2820 2822 4467
 4112 3915 4845
 2687 2689 4513
 3275 4412 4413
 4253 3505 4585
 4478 4557 4610
 3758 3420 4241
 2642 2641 4167
 3534 3619 4240
 3624 3111 4542
 3308 3306 4400
 2948 3239 4638
 2975 2946 4638
 3668 3520 4234
 4615 3929 4708
 3157 3159 4374
 4691 3910 4839
 2764 2762 4250
 3968 4238 4505
 60 59 4178
 2716 2718 4621
 4405 3432 4607
 3485 3675 4488
 2760 2756 4470
 4424 3187 4540
 4268 3447 4636
 4304 4530 4608
 3154 3491 4339
 3158 3155 4339
 3887 4336 4621
 3044 3048 4196
 3480 3267 4405
 3251 3607 4487
 3628 2842 4476
 3845 3655 4322
 3515 3354 4640
 3005 2894 4320
 4195 4185 4583
 4631 3790 4779
 4238 3139 4505
 3203 2909 4625
 2911 2914 4625
 3041 3040 4340
 3058 3174 4340
 4530 3315 4608
 3888 4377 4630
 4617 3783 4657
 3780 3540 4483
 3521 3956 4450
 73 2598 4660
 2996 2923 4384
 4537 2659 4615
 2830 2833 4428
 4250 2762 4251
 4049 3630 4698
 3788 3368 4594
 3129 3225 4594
 2757 2751 4251
 3479 4345 4588
 3411 3538 4661
 4370 3911 4564
 2689 2694 4513
 3765 3563 4215
 4356 4120 4823
 3871 3899 4592
 3769 4546 4620
 2711 2713 4336
 4417 2942 4589
 3775 4219 4658
 3181 4393 4628
 3120 3172 4516
 3327 4521 4642
 4217 2695 4500
 4331 3574 4675
 3429 3545 4576
 2810 2812 4597
 4185 2608 4583
 3482 4249 4668
 4554 3871 4592
 3543 3427 4409
 4362 3151 4484
 2829 2826 4267
 2707 2701 4496
 2662 2663 4617
 4581 3499 4582
 3873 3876 4628
 4376 3773 4640
 4046 3643 4613
 4819 3989 4888
 2665 2645 4192
 2687 4513 4606
 4688 3956 4756
 3657 3714 4497
 4356 4823 4862
 2745 2748 4602
 4406 4236 4939
 4201 4202 4204
 4328 3499 4581
 3146 3327 4348
 4347 4478 4610
 3626 4448 4659
 2626 2627 4572
 4113 3719 4667
 3666 3663 4352
 2747 3268 4296
 4303 4030 4614
 2816 2819 4457
 3572 3672 4670
 4311 3597 4599
 4446 4380 4532
 2658 2656 4606
 3859 4198 4538
 3187 4404 4540
 4377 4460 4630
 2922 2920 4687
 3892 4602 4662
 2703 2708 4569
 3834 3549 4222
 4544 3868 4639
 3720 3265 4276
 4598 3724 4645
 4520 3714 4854
 3216 3180 4678
 3698 3847 4255
 3791 3696 4255
 3522 4116 4957
 2605 4169 4171
 4219 4256 4496
 4415 4644 4867
 3582 3804 4676
 3052 3053 4201
 3258 3262 4434
 3253 3254 4434
 3602 4539 4634
 3561 4552 4629
 3731 4450 4610
 3933 4705 4783
 3150 4441 4521
 3728 4413 4609
 4069 3798 4956
 3832 3543 4410
 4536 3588 4611
 3824 3775 4658
 2880 2878 4671
 4502 4137 4503
 2895 2898 4246
 2715 3246 4473
 4035 3720 4277
 3506 3561 4685
 3945 3571 4685
 4487 3607 4632
 3184 4108 4914
 3543 4409 4410
 3108 4280 4542
 3608 4433 4630
 4686 4301 4766
 4527 3512 4528
 3539 3703 4315
 3493 3492 4315
 4085 3689 4695
 76 77 4176
 4102 4662 4725
 4461 3890 4565
 4249 4308 4489
 3798 3799 4810
 2615 4533 4617
 52 2622 4179
 3014 4551 4627
 4262 4261 4595
 2972 2979 4690
 2695 2692 4500
 3704 3197 4686
 3478 3891 4618
 3140 3025 4458
 3073 3114 4349
 3923 4493 4643
 3774 4293 4676
 3973 4520 4854
 4120 3125 5001
 3720 4276 4277
 3123 3037 4433
 3694 3791 4586
 4272 3249 4487
 3763 4304 4608
 4518 3757 4585
 4184 2602 4522
 3352 3313 4663
 4097 3488 5013
 4583 4174 4654
 3799 3615 4258
 3936 3779 4560
 2595 60 4699
 61 2618 4699
 4115 3532 4832
 3205 3206 4584
 3984 3941 4683
 3855 4503 4504
 3889 4492 4563
 4310 3777 4642
 3757 4253 4585
 3503 3535 4587
 4641 3794 4702
 4565 3890 4566
 3130 3451 4355
 3680 4554 4592
 3813 3676 4188
 4062 3631 4701
 3623 4437 4701
 4033 2598 4892
 2788 2775 4596
 4533 2662 4617
 4561 3202 4593
 3866 3867 4613
 2762 2757 4251
 3869 3870 4627
 2972 4690 4851
 4687 2920 4995
 3596 4228 4598
 4227 3724 4598
 3864 4267 4268
 4232 4825 4926
 4830 4384 5019
 3966 4490 4920
 3762 4583 4654
 3238 2785 4275
 4539 3860 4634
 4458 3744 4842
 4295 3444 4645
 3756 3909 4567
 4205 3231 4206
 3780 4483 4484
 3766 4599 4646
 4207 3913 4634
 2983 4480 4690
 4124 3658 4718
 3124 4301 4686
 3856 3855 4504
 4551 3869 4627
 2758 2761 4224
 3764 2783 4224
 3295 4342 4343
 4129 3680 4592
 4112 4033 4893
 3480 4117 4905
 4509 4330 4692
 4209 3801 4603
 3431 4329 4603
 4236 4406 4967
 4635 2849 4664
 3864 4268 4636
 4628 3876 4696
 3662 4030 4303
 3861 4543 4624
 3823 3773 4677
 4552 3883 4629
 2791 2795 4716
 4287 2849 4635
 2903 3036 4700
 4103 3406 4921
 3883 3884 4629
 4242 3887 4621
 4499 3797 4788
 3606 4212 4654
 4067 4191 4700
 3868 4491 4639
 2720 2766 4653
 3241 2823 4323
 4224 2761 4225
 2635 2634 4711
 4570 2770 4684
 4546 3235 4620
 3567 4058 4674
 2605 57 4169
 3316 3331 4427
 3760 4137 4502
 3786 3892 4662
 2878 2875 4723
 3203 4151 4765
 3678 4119 5001
 4258 4408 4623
 2738 2740 4216
 2615 4617 4657
 4806 4003 4866
 4364 3482 4668
 3794 3998 4616
 4200 4199 4536
 2968 3407 4297
 3834 4222 4223
 3621 2668 4708
 4557 3731 4610
 4039 4423 4742
 3555 2679 4715
 4481 4505 4917
 4454 3815 4619
 3860 4207 4634
 82 81 2634
 4228 4227 4598
 4025 4481 4917
 4266 4105 4979
 3135 4338 4680
 3606 4654 4694
 3148 3150 4521
 4329 4209 4603
 3300 4418 4726
 3708 3449 4767
 3261 3339 4397
 3043 3069 4193
 2610 78 4691
 2971 2969 4651
 3445 4368 4646
 4014 4012 4593
 3958 4100 4992
 3243 3241 4325
 4627 4064 4692
 4012 4561 4593
 3963 4763 4923
 3795 3780 4484
 3830 3829 4626
 2822 2825 4467
 3785 4028 4666
 3855 4502 4503
 3643 4468 4613
 4269 4270 4620
 4381 4380 4659
 4607 3432 4655
 4065 4063 4644
 4748 4130 4772
 4009 3805 4667
 3535 3534 4240
 3241 4323 4325
 3111 3108 4542
 4484 3151 4485
 4022 4018 4724
 3918 3598 4731
 4408 3560 4623
 2946 2948 4638
 4129 4570 4684
 4073 3668 4234
 3787 3893 4669
 4318 3669 4736
 3181 4628 4696
 4220 2789 4716
 85 84 4510
 3162 3157 4374
 3724 4295 4645
 2625 2650 4622
 3679 4128 4650
 4577 3546 4760
 4590 4282 4591
 4602 2748 4662
 3933 3618 4705
 3782 4271 4641
 3854 3787 4669
 4066 4799 4958
 3618 4493 4705
 2743 4296 4673
 3715 3485 4488
 2731 4473 4665
 4212 3762 4654
 3155 3154 4339
 4103 4042 4950
 4254 3765 4605
 3811 4124 4704
 4500 2693 4643
 4182 4871 4954
 3069 3044 4196
 3249 3251 4487
 3263 4087 4884
 3889 3785 4666
 4438 3753 4684
 4372 3940 4601
 2957 3184 4742
 3316 4427 4428
 3072 3483 5008
 3288 3005 4320
 3259 3256 4367
 3792 3291 4367
 3865 3864 4636
 3105 3424 4743
 4954 4194 5011
 4525 3764 4980
 2874 4492 4666
 3938 4564 4817
 4293 4578 4676
 3733 3513 4757
 3706 4088 4757
 3970 4772 4855
 3231 2666 4529
 3947 3295 4343
 4375 3167 4677
 2909 2911 4625
 4464 4511 4736
 3040 3058 4340
 4534 2615 4657
 2719 2731 4746
 3381 2721 4746
 4156 3885 4745
 4491 3914 4639
 3624 4542 4637
 4425 4017 4593
 3876 3878 4696
 4338 3759 4680
 3436 3612 4728
 4342 3134 4783
 4199 4210 4536
 2833 3316 4428
 3530 3533 4734
 3565 4674 4855
 4746 2731 4991
 3608 4630 4631
 4763 4172 4923
 3368 3129 4594
 3523 3411 4661
 4042 4104 4753
 4691 79 4878
 4398 3862 4523
 3952 4840 4875
 2849 4600 4664
 2602 4510 4517
 4423 2953 4742
 4073 4234 4235
 4154 2597 4932
 3858 4186 4971
 3865 4636 4637
 4880 3950 4942
 2677 3231 4205
 2740 2736 4205
 4446 3626 4659
 4027 3667 4771
 4435 3414 4669
 72 73 4660
 4126 4073 4235
 4413 4412 4609
 4695 3819 4834
 4660 4034 4900
 3609 4639 4707
 4412 3729 4609
 3864 2829 4267
 3856 4504 4829
 4462 3861 4624
 4309 4830 5019
 4623 3560 4683
 3872 3873 4628
 4099 4080 4885
 4299 2743 4752
 4184 4522 4679
 3987 4547 4672
 4074 4165 4622
 4219 4587 4658
 3028 4527 4538
 3908 4171 4844
 3824 4658 4730
 4249 4586 4668
 3288 4233 4307
 3235 4269 4620
 4149 4148 4664
 3808 4139 4747
 3825 3657 4497
 4278 4475 4726
 2751 2745 4602
 2656 2687 4606
 3144 3146 4348
 3769 4620 4703
 3501 4084 5000
 85 2603 2630
 3287 4347 4688
 3719 3537 4667
 3569 4105 4769
 3700 3693 4809
 3089 3238 4761
 3263 3091 4761
 4368 3766 4646
 4364 4668 4689
 4002 3666 4352
 3857 4534 4657
 4620 4270 4703
 3008 3512 4527
 4181 4182 4776
 4105 3508 4979
 3829 3572 4670
 3036 2905 4765
 2907 3203 4765
 2630 2633 4785
 3853 4143 4987
 2935 2937 4784
 3795 4484 4485
 4322 3606 4694
 3944 3822 4781
 4654 4174 4694
 3799 4258 4623
 3015 2922 4687
 4173 2620 4762
 4547 3722 4672
 2621 58 5014
 3703 3997 4157
 4245 4287 4635
 3015 4097 5013
 3447 3244 4797
 3541 3928 4782
 4504 4168 4829
 4634 3913 4706
 3211 4595 4682
 3927 4577 4760
 3560 4420 4683
 3279 4364 4689
 4283 4285 4727
 4037 4687 4995
 3162 4374 4663
 3823 4677 4732
 3180 3596 4678
 3696 3698 4255
 3975 4988 5009
 3138 3764 4750
 3399 3198 4750
 4340 3808 4747
 4055 4686 4766
 3905 3052 4201
 3574 3823 4675
 4143 3645 4788
 3254 3258 4434
 4343 3708 4767
 2609 83 4785
 4347 4610 4688
 3814 3828 4774
 3846 3699 4704
 3125 4355 5001
 4261 4573 4682
 4468 3866 4613
 3151 4354 4485
 4275 4254 4605
 3845 4322 4694
 2795 2797 4802
 4191 2901 4700
 3099 3125 4831
 3601 3097 4831
 3595 4647 4817
 3035 4247 4754
 4232 4233 4825
 4393 3872 4628
 4512 4278 4726
 3459 3659 4832
 3532 3461 4832
 4666 4028 4723
 3022 2880 4671
 2639 4537 4615
 3014 4627 4692
 3941 3034 4810
 4323 4324 4656
 4071 3920 4711
 3934 4342 4783
 2740 4710 4738
 4761 3238 4985
 3782 4641 4702
 4656 4283 4727
 3571 3506 4685
 3828 4361 4852
 3125 4356 4831
 3656 3853 4987
 3665 3837 4837
 3144 4348 4349
 4161 3770 5002
 4425 3204 4724
 3772 3979 4649
 2770 4438 4684
 3890 3922 4566
 3322 3418 4796
 3556 4114 4796
 3602 4634 4706
 4116 3522 4899
 2917 3328 4968
 3492 3539 4315
 3778 3932 4814
 2693 3448 4643
 4397 3862 4398
 4302 4299 4760
 3862 3863 4523
 2624 49 4168
 48 2623 4168
 4573 3943 4682
 4270 3325 4703
 4350 4082 4745
 3806 4614 4737
 3356 3226 4834
 3247 3245 4793
 3376 3335 4351
 3820 3795 4485
 2979 2983 4690
 3689 4243 4695
 3607 4579 4633
 3803 4242 4751
 3913 4472 4706
 3197 3124 4686
 4721 4055 4766
 4600 4149 4664
 4690 4110 4851
 3114 3144 4349
 4344 3287 4756
 2640 2639 4615
 3810 3554 4855
 3330 4193 4194
 4459 4729 4773
 3715 4488 4579
 4639 3914 4707
 4380 4446 4659
 65 4156 4986
 3875 3908 4844
 3880 3877 4844
 3313 3162 4663
 3893 4435 4669
 2611 2634 2635
 4296 3728 4673
 4006 3851 4861
 3966 3840 4847
 4396 3181 4696
 4158 2605 4863
 2874 4666 4723
 3238 4275 4605
 4330 3014 4692
 4518 4585 4717
 2623 4134 4962
 3947 4767 4786
 2607 4098 5014
 3901 4010 4830
 53 52 4179
 3460 3586 4821
 3334 3349 4821
 3650 4451 4779
 4032 4112 4859
 4676 3804 4731
 2854 3315 4818
 4164 3995 4859
 4473 3758 4665
 4492 3889 4666
 3184 2970 4851
 4061 3951 4856
 4523 3863 4714
 3451 3678 4355
 3687 3527 5000
 3621 4708 4759
 4459 3445 4729
 3631 3623 4701
 3807 3806 4737
 3566 3555 4854
 3915 3575 4845
 3464 3524 4845
 4578 3582 4676
 3505 3377 4864
 3237 4545 4766
 2593 53 4179
 4354 3199 4720
 3783 4208 4709
 60 61 4699
 4574 2930 4889
 80 2599 4878
 4178 2621 4693
 3794 4616 4702
 4089 4090 4784
 3980 4230 4870
 3927 3627 4865
 2673 2653 4748
 3610 3609 4707
 4392 3912 4799
 4509 4692 4744
 4214 3824 4730
 4699 2618 4868
 3214 4096 4934
 3342 4325 4727
 4091 3424 4935
 3703 4157 4535
 4595 4261 4682
 3476 3374 4764
 49 50 4172
 4164 3524 4887
 4659 4448 4733
 4696 3878 4749
 3488 2927 5013
 3880 4844 4922
 3642 4477 4739
 3909 3782 4702
 3886 3818 4794
 3603 3602 4706
 3895 4309 4881
 3836 3910 4777
 3658 3825 4718
 3462 3950 4880
 2783 2758 4224
 4465 3991 4787
 4831 4356 4862
 4442 3769 4703
 3905 4201 4204
 4079 3983 4838
 4090 4574 4889
 75 2616 4892
 2598 74 4892
 4119 3833 4221
 3524 4164 4859
 3088 3406 4950
 3557 3375 4885
 3212 3214 4886
 4610 4450 4688
 2892 4462 4740
 3752 4298 4866
 4051 4050 4941
 2613 71 4900
 4357 2980 4805
 4395 4394 4803
 3315 4530 4818
 2932 2935 4889
 4010 4011 4835
 4762 2620 4858
 3947 4343 4767
 4717 4585 4770
 3064 3065 4891
 3957 4264 4960
 3524 3362 4887
 3309 3311 4887
 3131 4506 4799
 3226 3133 4884
 3093 3263 4884
 4646 3917 4729
 4288 4289 4849
 4279 3428 4902
 3922 4406 4939
 3948 3947 4786
 2640 4615 4708
 4109 4110 4961
 3713 4040 4976
 4290 4019 4877
 3016 4445 4733
 3652 3476 5015
 2789 2791 4716
 3924 4046 4909
 4325 4323 4656
 4189 3988 4891
 4130 3810 4772
 3914 4541 4707
 4146 4079 4712
 4706 4472 4755
 2901 2903 4700
 4282 4283 4591
 3878 3881 4749
 4145 2766 5016
 4108 3946 4914
 3445 4646 4729
 68 2617 4932
 2597 67 4932
 3266 3480 4905
 4145 4337 4990
 2884 4106 4951
 3076 4189 4891
 64 65 4986
 4577 3927 4865
 3751 4160 5002
 2884 2882 4927
 4120 3710 4823
 4789 4365 4815
 3978 4332 4940
 3953 4150 4911
 4200 4536 4611
 4630 4460 4631
 4625 2914 4968
 4078 4746 4991
 2875 2874 4723
 2680 3970 4915
 4353 3733 4792
 4579 4488 4633
 2748 2738 4216
 4560 3903 4697
 3023 2886 4951
 3993 4164 4937
 3749 3751 5002
 3735 4403 4827
 2724 4337 5016
 4886 3214 4934
 4632 3607 4633
 2936 3498 4955
 2942 2938 4955
 4119 4120 5001
 4429 3752 4811
 4189 3131 4973
 4672 4471 4717
 3768 3988 4973
 3450 3522 4957
 2668 2640 4708
 3817 3386 4930
 2679 3621 4715
 4677 3167 4732
 4475 3300 4726
 4657 3783 4709
 3512 4223 4528
 4327 4581 4719
 4571 3807 4901
 4589 3789 4944
 3988 4189 4973
 4817 4564 4959
 4400 3326 4775
 4165 2625 4622
 4662 2748 4725
 4729 3918 4773
 2766 2722 5016
 3449 3580 4767
 3339 3862 4397
 3122 3322 4956
 4020 4151 4984
 3330 3043 4193
 3134 3624 4722
 3716 4114 4916
 4155 4154 4741
 2942 4068 4929
 3917 3918 4729
 4422 3886 4732
 2611 82 2634
 3211 4682 4758
 2647 3857 4709
 3465 3576 4853
 4624 3849 4740
 4151 3203 4984
 3580 3856 4786
 3374 3735 4764
 4486 3813 4823
 3920 4130 4748
 4042 3423 4950
 4196 4614 5017
 4396 4696 4749
 4144 3211 4758
 4463 3140 4846
 4767 3580 4786
 2925 3015 5013
 3589 3456 4916
 3139 4220 4917
 3900 3743 4948
 3326 4509 4744
 4018 4017 4724
 3598 3774 4731
 4386 4385 4925
 4632 4633 4754
 3603 4706 4755
 4318 4736 5015
 4655 3432 4931
 3214 4386 4999
 4312 4313 4836
 3512 3858 4223
 4123 4625 4968
 4649 3022 4970
 4367 3257 4872
 4320 4321 4825
 4586 3791 4668
 4753 3614 4787
 3936 4560 4697
 3669 4464 4736
 4711 3920 4748
 3431 4603 4931
 4814 3932 4906
 4674 3970 4855
 4705 3934 4783
 4414 3835 4930
 4603 3801 4899
 4289 3035 4848
 4798 3712 4880
 4587 3535 4658
 3613 4052 4681
 3825 4497 4789
 3687 4084 4896
 3522 3809 4899
 3079 2939 4826
 3774 4676 4731
 4003 3898 4921
 4156 65 4890
 4682 3943 4758
 4692 4064 4744
 3035 4754 4848
 4086 4761 4985
 4348 3327 4713
 3233 3501 5000
 3952 3342 4840
 2602 85 4510
 4670 3672 4768
 4545 3959 4721
 4450 3956 4688
 3330 4194 4954
 4840 3843 4875
 3857 4657 4709
 3700 4102 4981
 4658 3535 4730
 4064 4065 4744
 4708 3929 4759
 3691 3690 5005
 3987 4672 4717
 3910 4691 4878
 4471 4518 4717
 2953 2957 4742
 4236 4237 4939
 4247 4632 4754
 3016 4733 4812
 4726 4418 4820
 3971 4523 4714
 2918 2924 4995
 4477 4076 4739
 3291 3259 4367
 4188 3601 4862
 3542 3105 4743
 4789 4497 4904
 3935 3933 4722
 4644 4063 4867
 4381 4659 4733
 4242 4653 4751
 4395 3909 4822
 3513 3706 4757
 4458 4842 4903
 4206 3812 4710
 3199 4439 4895
 4455 3182 4989
 4480 3086 4961
 3022 4671 4970
 57 2607 5014
 2721 2719 4746
 4703 3325 4778
 4399 3958 4992
 4485 4354 4720
 3970 4674 4915
 3918 4731 4833
 3929 3930 4759
 3086 4346 4961
 3808 3436 4728
 4704 3699 4790
 3885 4350 4745
 2610 4839 4993
 3791 4255 4689
 3586 3530 4734
 4618 3891 4874
 3167 4422 4732
 4194 3837 5011
 4568 3381 4874
 3230 4396 4749
 4445 4381 4733
 3175 3905 4901
 4174 4173 4762
 4406 3922 5012
 3916 4042 4753
 3041 4747 4806
 4122 3328 4835
 3546 4302 4760
 4749 3881 4819
 3921 3927 4752
 4556 3066 4800
 4924 4005 4971
 2996 4384 4830
 4442 4703 4778
 4516 3489 4940
 3908 4535 4969
 4313 3016 4812
 3135 4680 4843
 4443 3633 4820
 2599 4181 4776
 4853 3576 4910
 3849 4526 4740
 3066 4447 5018
 4839 4040 4993
 3932 4037 4906
 4734 3957 4960
 4007 4577 4865
 4575 3721 5010
 3028 3008 4527
 3737 3736 4769
 4571 3589 4916
 4633 3962 4754
 3839 3919 4978
 3489 4575 4940
 4709 4208 4801
 4635 4664 4768
 3332 3334 4979
 4707 4541 4774
 2736 2677 4205
 3667 3957 4771
 4200 4611 4612
 4365 3279 4804
 3736 4359 4964
 4216 2740 4738
 3612 3613 4681
 3699 3831 4790
 3325 4341 4778
 4582 4713 4719
 3923 3934 4705
 72 4660 4900
 3984 4683 4977
 3943 3944 4758
 4193 3069 4879
 4787 3991 4935
 4581 4582 4719
 2653 2635 4711
 3479 4588 4977
 4160 4161 5002
 4698 3971 4945
 4100 3958 4982
 3041 4340 4747
 3987 4717 4770
 4673 3921 4752
 4755 4857 4936
 4317 4318 4764
 4346 3086 4918
 4668 3791 4689
 2596 4178 4908
 4472 4570 4755
 65 66 4890
 3086 4553 4918
 4712 4079 4838
 4081 4699 4868
 2743 4673 4752
 4431 4440 4904
 4301 3237 4766
 4882 4453 4911
 3610 4707 4774
 4460 3790 4631
 3986 3987 4770
 4665 3758 4978
 2941 4150 4826
 4582 4348 4713
 4111 3974 4439
 3142 3113 5008
 3744 4344 4756
 4029 3935 4860
 3881 3989 4819
 4401 4400 4775
 2620 4175 4858
 4759 3930 4808
 4585 3505 4770
 4406 4405 4967
 3998 3569 4769
 3826 4442 4778
 3693 3691 4809
 4017 4425 4724
 4192 2647 4801
 3091 3089 4761
 3182 4459 4773
 4052 4680 4681
 2647 4709 4801
 3289 4353 4792
 4436 3541 4782
 3970 2673 4772
 4241 3839 4978
 3792 4367 4872
 3279 4689 4804
 3280 4365 4789
 3344 4867 5004
 84 85 2630
 4490 2892 4920
 2905 2907 4765
 2609 4785 4871
 2937 3079 4784
 4733 4448 4812
 4240 3976 4807
 3822 3996 4781
 4548 3557 4943
 4774 3828 4852
 4333 3135 4843
 3245 3952 4793
 4462 4624 4740
 2939 2941 4826
 4653 2766 4751
 3344 4415 4867
 4169 4170 4922
 4245 4635 4912
 3244 3247 4797
 3845 4694 4762
 3649 4402 4998
 4623 4683 4983
 3537 3389 4898
 4493 3923 4705
 4541 3814 4774
 4204 3589 5006
 4148 4670 4768
 3960 4121 4963
 4466 3761 4883
 4619 3945 4907
 4214 4730 4807
 4988 4183 5009
 3804 3981 4833
 3975 4252 4988
 4778 4341 4850
 4732 3886 4794
 4113 3603 4936
 4540 4404 4888
 4002 4352 4910
 3230 4749 4819
 3198 3138 4750
 3930 4038 4808
 4505 4481 4952
 3140 4458 4903
 3990 3650 4779
 4048 3820 4720
 84 2630 4785
 4046 4613 4803
 3788 4594 4780
 3645 4006 4788
 3967 4880 4942
 3853 3854 4902
 4325 4656 4727
 4171 3908 4863
 3845 4762 4858
 3406 4429 4811
 3589 4571 5006
 4736 3842 5015
 3961 3960 4963
 2797 3289 4802
 3097 3099 4831
 4683 4420 4977
 3848 3684 4938
 83 84 4785
 3935 4722 4860
 4208 3827 4801
 4213 4214 4793
 4506 4392 4799
 3461 3459 4832
 4655 3788 4780
 3614 4465 4787
 4636 3447 4919
 4124 3811 5007
 3034 4388 4810
 4524 3792 4872
 4689 4255 4804
 4182 4954 5011
 3948 4132 4974
 4858 4175 4913
 3444 2854 4818
 4011 4122 4835
 3826 4778 4850
 4923 2612 4988
 4125 4126 4780
 3535 4240 4730
 4223 4222 4965
 3790 3465 4853
 3664 3665 4837
 4094 4095 4897
 4192 4801 4869
 4168 2623 4829
 4327 4719 4814
 4050 3399 4941
 4755 4570 4857
 4576 3853 4902
 4054 4055 5003
 3734 4357 4805
 4680 4052 4843
 3418 3556 4796
 4514 3904 4824
 4674 4058 4915
 4448 3955 4812
 3956 3850 4842
 4694 4174 4762
 3 4184 4795
 4257 3975 5009
 3793 3778 4814
 3820 4485 4720
 3595 4351 4647
 4184 4679 4795
 4570 4129 4857
 4177 4619 4907
 4241 3641 4996
 4879 3069 5017
 4622 2658 4861
 4404 3230 4819
 3819 3356 4834
 3399 4750 4941
 3595 3376 4351
 3633 4512 4820
 4481 3642 4952
 4255 3847 4804
 4129 4592 4857
 4132 4131 4974
 4391 4735 4795
 4150 4056 4826
 4719 3793 4814
 3342 4727 4840
 4443 4820 4944
 3784 4556 4800
 4594 4125 4780
 49 48 4168
 3422 4514 4824
 4333 4843 4928
 3204 4140 4873
 3554 3565 4855
 4309 3901 4830
 4664 4148 4768
 3877 3875 4844
 4669 3414 4791
 4403 3511 4827
 3216 4678 4909
 4121 3142 5008
 3854 4669 4791
 3851 4074 4861
 3840 3842 4847
 2597 4152 4890
 3483 4288 4849
 4801 3827 4869
 4867 4062 5004
 3823 4732 4794
 3523 4661 4813
 4722 3624 4860
 4843 4053 4928
 4117 3480 5012
 4285 3843 4840
 4613 3867 4803
 4512 4726 4820
 3542 4743 4897
 2605 4171 4863
 4720 3199 4895
 4683 3941 4983
 3995 4032 4859
 3487 4312 4836
 3659 4524 4894
 4731 3804 4833
 3664 4837 4879
 3349 3460 4821
 3761 4144 4883
 3950 4023 4942
 4530 4044 4818
 4515 3041 4806
 2748 4216 4725
 4386 4925 4999
 4341 3064 4850
 3988 3826 4850
 4727 4285 4840
 2970 2972 4851
 66 2597 4890
 4352 3990 4910
 4200 4612 4679
 3280 4789 4904
 3951 3977 4856
 3911 4131 4959
 4715 3621 4946
 3844 3845 4858
 3389 3438 4898
 4052 4053 4843
 4722 3933 4783
 3813 4188 4862
 3991 4091 4935
 3328 4494 4835
 3764 4224 4980
 3714 3566 4854
 3575 3464 4845
 4730 4240 4807
 4116 4652 4957
 3377 3551 4864
 3203 4625 4984
 2610 4691 4839
 4002 4910 4976
 4782 3928 4947
 4844 4171 4922
 4114 4571 4916
 3422 4824 4876
 3827 4009 4869
 4863 3908 4969
 2618 4180 4841
 4811 4003 4921
 4644 3523 4813
 4101 3687 4896
 4870 3023 4951
 3837 3836 4777
 4106 3980 4870
 4087 4695 4834
 3627 3469 4865
 3134 4722 4783
 4737 3175 4901
 4915 4058 5007
 4030 3664 4879
 3916 4787 4935
 3983 4559 4838
 3959 3986 4949
 4063 4062 4867
 2653 4711 4748
 4019 4067 4877
 4298 4515 4866
 79 80 4878
 4754 3962 4848
 3972 4463 4846
 4058 4124 5007
 4625 4123 4984
 3945 4741 4907
 4759 4808 4946
 4027 4649 4970
 3660 3595 4817
 4074 4622 4861
 3962 3961 4848
 3784 4800 4943
 4675 3823 4794
 4942 4023 4990
 3481 4395 4822
 4580 3610 4852
 4043 4081 4868
 3965 3964 4763
 4444 3422 4876
 4022 4724 4873
 4156 4745 4986
 3444 4818 4975
 3897 3895 4881
 4223 3858 4972
 3487 4836 4933
 4700 3036 4877
 4175 2596 4913
 4515 4806 4866
 4144 4758 4883
 3712 3462 4880
 3931 4192 4869
 4076 3937 5005
 3964 49 4172
 3789 4443 4944
 4528 4223 4965
 4818 4044 4975
 3990 4853 4910
 4750 4107 4941
 3964 4172 4763
 3916 4753 4787
 3844 4858 4913
 4678 3926 4909
 4592 3899 4857
 4327 4814 4906
 3288 4320 4825
 3684 3686 4938
 4321 3023 4926
 3375 3477 4885
 3511 3212 4886
 2975 4638 4882
 4361 4886 4934
 4143 4788 4987
 3710 4486 4823
 2930 2932 4889
 4152 4156 4890
 4029 4860 4919
 74 75 4892
 3891 4568 4874
 3971 4714 4945
 3248 4712 4838
 4702 4616 4822
 4023 4145 4990
 4742 3184 4914
 3065 3076 4891
 4564 3911 4959
 4230 4232 4926
 3362 3309 4887
 3743 4540 4888
 3610 4774 4852
 4857 3899 4936
 3133 3093 4884
 3906 4115 4894
 4132 4133 4962
 4566 3922 4939
 71 72 4900
 2617 4177 4907
 4068 4142 4929
 3941 4810 4983
 4820 4418 4944
 3965 4698 4945
 4721 4949 5003
 4028 4027 4970
 4588 4346 4918
 3926 3924 4909
 3850 4479 4903
 4440 3280 4904
 4756 3956 4842
 4718 3825 4815
 3428 4576 4902
 4237 4566 4939
 4030 4879 5017
 4057 3844 4913
 3660 4817 4959
 4107 4051 4941
 4856 3977 4997
 4616 3481 4822
 3432 3431 4931
 3946 4039 4914
 4571 4901 5006
 3456 3716 4916
 3802 4528 4965
 3489 3266 4905
 3801 4116 4899
 4816 3537 4898
 3909 4702 4822
 2924 4327 4906
 3898 4103 4921
 4881 4309 5019
 2599 4776 4777
 3686 4100 4982
 4332 4516 4940
 3642 4739 4952
 2882 3022 4927
 2633 4519 4871
 4758 3944 4883
 4244 4245 4912
 4005 3834 4972
 4453 3953 4911
 3833 4005 4221
 4526 3966 4920
 4127 3972 4994
 3069 4196 5017
 4938 3686 4982
 3992 3993 4937
 3985 4588 4918
 67 68 4932
 4359 3296 4964
 4384 3293 5019
 4779 3790 4853
 4053 4525 4928
 4638 4162 4882
 4482 3700 4981
 3899 4113 4936
 2892 4740 4920
 3718 2680 4915
 3834 4223 4972
 4067 4700 4877
 3585 3967 4942
 4095 4096 4999
 2886 2884 4951
 3424 3916 4935
 4080 3784 4943
 4160 3751 4958
 3989 4043 4948
 4265 3586 4960
 3744 4756 4842
 4447 3487 4933
 2604 3965 4945
 3311 3649 4998
 3423 3088 4950
 4233 3288 4825
 4157 4158 4969
 3912 4160 4958
 2938 2936 4955
 3843 3839 4996
 3835 3344 5004
 3751 4066 4958
 2914 2917 4968
 4346 4109 4961
 4842 3850 4903
 4048 4720 4895
 4553 3985 4918
 4385 3542 4925
 4388 3122 4956
 4264 4265 4960
 4171 4169 4922
 4589 2942 4929
 4102 4725 4981
 3954 4075 5018
 4066 3768 4973
 3821 4049 4953
 4724 3204 4873
 3386 4414 4930
 4439 3974 4895
 3576 3713 4976
 4519 3330 4954
 4871 4519 4954
 4044 4045 4975
 3585 4942 4990
 4785 2633 4871
 4651 3248 4966
 4088 4086 4985
 4794 3818 4947
 3548 3450 4957
 3797 3656 4987
 4186 2594 4971
 4559 4059 4966
 4123 4020 4984
 3958 4444 4982
 3508 3332 4979
 2614 64 4986
 4773 3918 4833
 4040 4004 4993
 4420 3479 4977
 4176 2610 4993
 4739 3968 4952
 3113 3072 5008
 4505 3139 4917
 3507 3948 4974
 4849 3961 4963
 2612 4183 4988
 2920 2918 4995
 4134 4132 4962
 3770 3749 5002
 3527 3233 5000
 3551 4054 5003
 3480 4406 5012
 3238 4605 4985
 3922 4117 5012
 3721 4035 5010
 3842 3652 5015
 4131 3660 4959
 2722 2724 5016
 2927 2925 5013
 4183 2600 5009
 58 57 5014
 3811 3718 5007
 4652 3548 4957
 4721 3959 4949
 3437 4333 4928
 4062 4701 5004
 4418 4589 4944
 3825 4789 4815
 3968 4505 4952
 2618 4841 4868
 4444 4938 4982
 4337 3585 4990
 3301 4399 4992
 4637 4636 4919
 4776 4182 5011
 4876 3848 4938
 3839 4241 4996
 4949 3551 5003
 3624 4637 4860
 4558 4078 4991
 4216 4738 4828
 4614 4030 5017
 3641 4875 4996
 4605 4088 4985
 4525 3437 4928
 4740 4526 4920
 3807 4737 4901
 3818 4782 4947
 3248 4838 4966
 4405 4607 4967
 4860 4637 4919
 4745 2614 4986
 3758 4241 4978
 4059 4651 4966
 3990 4779 4853
 3977 4550 4997
 4776 3837 4777
 4645 3444 4975
 4178 4693 4908
 2594 4924 4971
 3718 4915 5007
 4838 4559 4966
 4741 2617 4907
 3928 4675 4947
 4039 4742 4914
 4671 4028 4970
 4808 3969 4946
 4224 4225 4980
 4725 4216 4828
 4045 4645 4975
 2731 4665 4991
 3965 4763 4953
 3799 4623 4983
 2975 4882 4911
 4535 4157 4969
 4665 4558 4991
 3986 4864 4949
 4833 3981 4989
 4788 3797 4987
 4701 3835 5004
 3937 4809 5005
 4910 3576 4976
 4055 4721 5003
 3586 4734 4960
 4355 3678 5001
 4038 4816 4898
 3603 4755 4936
 4925 4095 4999
 3837 4776 5011
 4004 4176 4993
 3905 4204 5006
 4810 3799 4983
 3406 4811 4921
 4773 4833 4989
 3621 4759 4946
 4675 4794 4947
 3972 4846 4994
 4897 4095 4925
 4828 4482 4981
 3542 4897 4925
 3182 4773 4989
 4735 3 4795
 4444 4876 4938
 3483 4849 4963
 4809 3691 5005
 4864 3551 4949
 3743 4888 4948
 4888 3989 4948
 4106 4870 4951
 4158 4863 4969
 4901 3905 5006
 4937 3311 4998
 4875 3843 4996
 4725 4828 4981
 3293 4881 5019
 4933 3954 5018
 3992 4937 4998
 4447 4933 5018
 2594 3 4735
 2594 4735 4924
 3858 4971 4972
 4971 4005 4972
 4612 4391 4679
 4679 4391 4795
 6442 5 6446
 5052 6 6579
 6 6578 6579
 6489 6014 7187
 6261 6958 7054
 6713 6320 6716
 5675 6385 6796
 6488 6489 7187
 6413 6204 6601
 6232 6392 6847
 5041 6383 6384
 6418 6358 7171
 6796 6385 7444
 6531 6366 6532
 6597 6196 7053
 6819 6962 7174
 6321 6503 6738
 6715 6713 6716
 6330 5816 6831
 6778 7042 7358
 6396 5705 6871
 6503 5706 6738
 6192 6193 6439
 6467 6468 6472
 5816 6330 7191
 6905 6458 7306
 6458 6905 7116
 6467 6472 6512
 5815 6407 6980
 6146 6208 6426
 6668 6669 7066
 5322 6427 7229
 5722 6406 7045
 6488 5777 7238
 6146 6426 7238
 5668 5489 6505
 6136 6292 6501
 6360 6488 7238
 6477 6608 7141
 6366 6531 7226
 6281 6508 6963
 6020 6476 6973
 6722 6281 6963
 6560 5114 6970
 6397 6121 6744
 6680 6333 6681
 5288 5691 6723
 6381 5038 6429
 6278 6740 6944
 6839 6247 7093
 5114 6560 7145
 5038 6381 6504
 6601 6204 6752
 6825 6661 6826
 6828 6829 6979
 7075 6336 7265
 6383 5041 6526
 5036 6393 7386
 6415 5866 6523
 6385 5675 6797
 95 96 6504
 98 99 6529
 5074 5080 6473
 6121 6397 7367
 6401 5745 7007
 5859 6020 6973
 6439 6193 7181
 7264 6480 7280
 6447 6450 7076
 6387 5804 6815
 6207 6510 6511
 5745 6401 6914
 6358 6359 7171
 6392 6232 7157
 6393 5036 7359
 6588 5691 6590
 6104 6394 6992
 6778 6777 7042
 6779 6778 7358
 5705 6396 6872
 6587 7233 7411
 5328 6597 7053
 6406 6255 7045
 6427 6982 7229
 5996 7264 7280
 6684 5688 6686
 6732 6101 6933
 6958 6068 7054
 5973 6142 6528
 6106 6410 7044
 6093 6659 7229
 6962 6271 7174
 6589 6588 6590
 6608 6477 7285
 6464 5048 6466
 5804 6387 6814
 123 122 6512
 5724 7075 7265
 6511 7128 7152
 5139 5137 6585
 6412 6495 7434
 6587 6607 7233
 5692 6722 6963
 6417 5639 7093
 5540 5535 6790
 5569 6586 6587
 6207 6509 6510
 6430 98 6529
 6399 5701 7427
 6474 5932 6475
 5489 5488 6505
 5535 5539 6790
 5073 5074 6473
 6100 6263 6491
 6416 5716 6894
 6517 6523 6525
 5099 5101 6441
 5237 5231 6433
 6487 7119 7244
 5331 5237 6433
 6495 6411 7434
 5534 6695 7193
 5052 6408 7209
 6431 6530 7405
 5691 6588 6723
 6695 5534 7342
 5684 6600 7276
 6486 6487 7244
 7128 5462 7152
 6722 5692 6723
 6394 6104 7340
 5716 6416 7199
 6669 6672 7066
 6137 6136 6501
 6387 6815 7186
 6007 6715 6716
 6315 6555 7035
 5997 6899 6921
 6822 6823 6857
 6887 6879 7003
 5137 5204 6585
 6555 5035 7035
 6502 5668 6505
 6921 6899 7308
 6431 6529 6530
 5688 6684 6685
 6600 6601 7276
 5870 6386 6975
 6815 6156 7186
 6546 6087 6550
 6509 6206 6544
 6537 5815 6980
 5701 6399 6702
 6523 6517 7325
 5032 6545 6550
 6358 6418 7372
 6421 6263 7055
 6157 6797 6854
 5639 6839 7093
 6603 6602 7031
 5124 7219 7268
 6410 6106 6479
 5197 7175 7309
 6837 6475 7013
 5101 5121 6441
 6935 6904 7127
 5041 6384 6435
 5030 6420 7381
 5021 6484 6885
 7039 5680 7088
 6386 5870 7174
 5807 5992 6534
 6419 6198 7135
 96 5038 6504
 6246 6100 6491
 6554 5052 7209
 6958 6261 7250
 5471 7204 7267
 6715 6007 7445
 7135 6198 7165
 6602 6444 7031
 6207 6206 6509
 6345 7039 7088
 122 6467 6512
 6446 5050 6447
 6412 5640 6495
 6494 5439 6902
 6818 5581 7251
 5648 5646 6603
 7042 6777 7230
 97 98 6430
 5125 6483 7201
 5581 7012 7251
 6501 6292 7317
 6338 6786 7072
 6681 6333 7365
 5035 6398 7035
 6450 6454 7076
 6396 6871 7061
 6483 5125 7352
 7150 6231 7333
 5569 6520 6586
 6740 6741 6944
 6151 6494 6902
 6345 7088 7158
 5974 5973 6528
 5 5050 6446
 6087 6546 6548
 6182 6370 7343
 6503 6082 7295
 6710 6197 7126
 5686 6544 6625
 5977 6120 6605
 5975 6828 6979
 6397 6424 7367
 6477 6476 7215
 6081 6668 7066
 5043 95 6504
 7219 6551 7268
 6407 5815 7290
 7175 6390 7309
 99 5026 6529
 6082 6503 7344
 6184 6345 7158
 6398 5035 6576
 7150 6574 7241
 7013 6475 7180
 6549 5878 6551
 7188 5167 7307
 6247 6839 7001
 6426 6360 7238
 6202 6106 7044
 125 124 6470
 6522 5053 7209
 6545 6546 6550
 6432 5226 6880
 6333 6680 7033
 6523 5866 6525
 6278 6944 7258
 6252 6493 6577
 5817 5816 7191
 6524 6522 7325
 6982 6093 7229
 6466 5048 6512
 6777 5330 7230
 6574 7150 7333
 6403 6522 7209
 5432 6822 6857
 5250 6428 7255
 6478 6165 7148
 7204 6377 7267
 6605 6120 6606
 6826 6661 7156
 6165 6478 6797
 6661 6825 7277
 5048 6464 6470
 6276 6322 7249
 6196 6749 7053
 6904 5179 7127
 5350 6897 7084
 5648 6603 6604
 6222 6805 7010
 6428 5250 7330
 6608 5694 7141
 6142 6497 6528
 6476 6020 7215
 6979 6829 7323
 6446 6447 7076
 5037 6497 6526
 115 116 6526
 6475 5932 7180
 6101 6732 7360
 5247 6419 7135
 7249 6322 7326
 6377 7204 7310
 5817 7191 7378
 6659 6093 7231
 6209 6390 7168
 6009 7220 7239
 6511 6510 7118
 5870 6819 7174
 7168 6390 7175
 6504 6381 7395
 5701 6631 7427
 6574 6968 7241
 5639 6417 7299
 6053 6209 7178
 6209 7168 7178
 5290 6702 7221
 5885 6511 7118
 6672 6673 7334
 6473 5080 7416
 5119 6436 6908
 6381 6382 7395
 6472 6468 6473
 6553 89 6555
 6672 7334 7409
 6303 6377 7310
 5724 6414 7075
 6367 7188 7307
 6544 6206 6625
 6445 6443 6446
 7233 5382 7411
 6527 7207 7273
 6370 6285 7343
 6847 6392 7237
 6426 6208 6537
 5878 6549 7304
 6754 5859 6973
 5992 6199 6534
 6560 6324 7145
 5038 97 6430
 6178 6887 7003
 6517 5109 6562
 6406 5722 7104
 6520 5569 6683
 6497 6383 6526
 7130 5036 7386
 6797 5675 6854
 5053 6522 6524
 6419 5247 7421
 6165 7068 7148
 5048 123 6512
 6291 6732 6933
 5323 6374 7430
 6236 7278 7298
 6414 5724 7206
 6374 5323 7444
 5054 5023 5272
 6263 6421 7254
 6674 7217 7236
 6157 6165 6797
 5859 6754 7172
 6749 5376 7384
 5021 6885 7327
 6378 5807 6534
 6078 6287 6582
 6506 6070 7350
 6402 6401 7007
 5376 6749 7349
 6976 6253 7304
 6143 6931 7139
 6324 6560 7311
 5646 5649 6603
 5866 6415 7283
 5719 7034 7044
 7179 5704 7296
 7207 6575 7273
 6271 6962 7033
 7120 6354 7138
 5793 5977 6605
 6429 5038 6430
 5692 5288 6723
 5976 6095 6541
 6530 7114 7405
 6795 7071 7259
 124 5048 6470
 6354 6055 7138
 6619 5826 6956
 5762 6539 6687
 6427 5322 7255
 5051 6517 6562
 6522 6523 7325
 6197 6859 7126
 6389 6395 6589
 6583 6520 6683
 6478 6385 6797
 6340 6339 6959
 7339 6685 7377
 5684 5541 6947
 6673 5512 7334
 6424 5747 7367
 6363 7005 7292
 6070 6506 7312
 6017 6760 6841
 5041 115 6526
 7144 6688 7212
 6734 7339 7377
 6564 5039 6948
 6388 6277 6518
 6532 6366 7435
 6124 6844 6872
 7278 6515 7298
 6857 6823 7087
 5863 6564 6948
 6701 6362 6971
 5050 125 6470
 7220 6372 7239
 123 5023 5054
 5747 6424 7332
 6388 6518 7397
 7152 5462 7153
 6397 6744 7069
 5328 6437 6597
 5034 6521 6565
 6786 5605 7072
 7034 6202 7044
 6687 6539 7438
 6204 6413 7297
 5028 6435 6501
 6280 6794 7008
 6416 6870 7199
 6702 6399 7221
 6844 5705 6872
 6472 6466 6512
 7005 6363 7369
 6487 7179 7296
 5512 6673 7338
 6535 5601 6581
 6553 6555 7346
 6565 6521 7382
 6193 6425 7181
 6417 7093 7248
 6495 5640 6496
 6483 6305 7201
 5834 7302 7315
 116 5037 6526
 6365 6366 7226
 5980 5976 6541
 7217 5516 7236
 6805 5717 7010
 6252 6577 7274
 5352 6914 7245
 6207 6511 7152
 6879 6887 7436
 7260 6755 7300
 5226 6432 7270
 6490 6481 7353
 6296 6803 7448
 6408 5052 7281
 6271 7033 7222
 6786 6338 7413
 6497 5037 6527
 6803 6296 7271
 6222 6544 6805
 6505 5488 6506
 6841 6760 7034
 6491 6263 7254
 6585 5204 6971
 6790 5539 7101
 104 103 6558
 7077 5666 7095
 6795 5817 7071
 5406 5404 6757
 6277 6920 7371
 6540 6635 7438
 7080 5426 7121
 6080 6078 6582
 6335 6738 7288
 5099 6441 7137
 6197 6710 7362
 6490 7353 7394
 6897 5350 7213
 7200 6595 7262
 93 5020 5055
 5569 6587 7411
 5937 5849 6676
 6589 6395 7203
 5 6442 7136
 7269 5867 7287
 6670 6048 6674
 6675 6677 6678
 6686 5688 7245
 7302 6391 7315
 6253 6976 7318
 6931 6326 7139
 5507 7117 7131
 7276 6601 7322
 6674 6048 6675
 5031 7105 7162
 7009 6282 7085
 5696 5642 6665
 6445 7077 7095
 5076 6237 6940
 6738 6335 7279
 6518 5696 7397
 6425 6193 7429
 6447 5050 6448
 6280 5665 6794
 92 5027 6576
 6575 5029 7134
 6437 5328 7142
 5139 6585 7398
 5046 6507 6557
 7164 6122 7203
 5462 6708 7153
 5055 5020 5089
 5404 6638 6757
 6619 6956 7321
 7201 6305 7362
 6337 6397 7069
 6635 6540 7242
 5482 5676 6645
 7043 7289 7358
 6355 7269 7287
 6318 6396 7061
 6507 5046 6558
 7216 7200 7263
 5760 7139 7169
 5719 6841 7034
 5939 6048 6670
 5689 6583 6683
 6444 6445 7095
 6592 5317 7146
 6411 5744 7434
 6232 6344 7157
 7159 5726 7234
 6095 6495 6541
 5070 5079 6932
 6337 7069 7286
 6668 5941 6669
 6959 6339 7331
 6059 6062 6586
 6362 6585 6971
 6365 7226 7382
 6815 5804 6816
 6920 6492 7371
 6675 6676 6677
 5046 104 6558
 5989 5986 6736
 5032 6550 7190
 5651 5648 6604
 5662 6726 6965
 6192 6439 7221
 6034 6362 6701
 103 5032 6558
 6604 6603 7031
 5902 7161 7227
 114 5040 5056
 5272 5023 5327
 6465 6471 7223
 6539 6540 7438
 5932 6474 7324
 7071 6250 7259
 5109 5020 6562
 7018 5079 7140
 5849 5848 6676
 5873 5570 6756
 5059 5057 5060
 6336 6490 7265
 6222 6509 6544
 6429 6430 6431
 6048 5937 6676
 6726 5666 7077
 5210 5855 6626
 5066 5076 6940
 5941 5939 6670
 6521 6365 7382
 5056 5040 5057
 6606 6120 7047
 5744 6411 7400
 5742 6482 7205
 6731 6276 7249
 6564 7073 7133
 5942 5941 6668
 6640 6764 7090
 6022 5768 6867
 6316 6420 6500
 5527 5521 6654
 5056 5057 5059
 6544 5686 6805
 6420 5030 6500
 7031 6444 7095
 5465 5482 6645
 93 92 5020
 5676 5898 6645
 6322 6721 7326
 5062 5061 5063
 6196 5993 6748
 7084 6897 7375
 6968 6382 7241
 6586 6062 6587
 5439 5409 6902
 5336 7059 7065
 6248 7260 7300
 6707 5582 6911
 5899 6264 6598
 5383 6082 6712
 5570 5406 6757
 5215 5218 6647
 5061 5060 6941
 6516 6393 7359
 5540 6790 7357
 6497 6527 6528
 5367 5568 6763
 6445 6446 7076
 6196 6748 6749
 6932 5079 7018
 5052 6580 7281
 6566 5062 7062
 6582 6287 7426
 6511 5885 7128
 6640 6633 6764
 6533 6378 6534
 6485 108 7428
 5193 6412 6927
 5881 6034 6701
 6220 7144 7212
 5307 5399 6922
 5059 5061 5062
 6096 6196 6597
 5440 5437 6873
 5760 5614 6800
 6721 6322 7440
 6287 6840 7426
 5874 6093 6637
 5536 5763 6703
 6486 5854 7335
 5410 5704 6891
 6697 6008 6698
 6529 5026 6530
 5687 5686 6625
 5763 5562 6780
 7070 5952 7214
 7073 6294 7133
 5994 6745 6746
 7289 6779 7358
 6433 5231 7270
 5086 5120 6936
 6931 6143 7442
 6913 7159 7234
 6447 6448 6449
 6448 5050 6470
 6794 6793 7008
 6601 6752 7322
 5521 5703 6654
 5917 6030 7048
 5579 5719 6774
 5649 6602 6603
 6465 7223 7306
 5112 5110 6945
 6314 7080 7121
 6423 6701 6971
 5089 5020 5109
 7108 6784 7163
 115 114 5056
 6480 6052 7372
 6004 6326 6931
 6282 6283 7085
 6395 7164 7203
 6691 5184 6868
 5175 5210 6626
 6549 6976 7304
 6762 6761 6957
 7002 5753 7016
 5182 6125 6865
 5218 5723 6647
 5768 5174 6867
 6591 6118 6969
 6436 5119 7368
 119 6571 6572
 6387 6341 6814
 5867 7183 7287
 6022 6867 6942
 6482 5742 7441
 6669 5941 6670
 5690 6591 6969
 5587 5555 6653
 5331 6433 7222
 6756 5570 6757
 6843 6816 7414
 5272 5327 5515
 5059 5060 5061
 5800 6135 6807
 6747 7200 7262
 6922 5399 6923
 6490 5500 7265
 5490 6008 6697
 5324 5899 6598
 5994 5856 6745
 5028 6501 7317
 7132 5375 7177
 5111 6517 6525
 5343 5398 6657
 5371 5726 6869
 5239 5346 6730
 6186 5925 6696
 5057 5040 5058
 5337 5694 6608
 5444 5908 6682
 5801 5817 6795
 5555 5527 6654
 5211 5212 6646
 7048 6030 7448
 6941 5060 6967
 5304 5307 6922
 5063 5061 5064
 5614 5616 6800
 6276 6731 7425
 6350 6708 7232
 6431 6430 6529
 5269 6118 6591
 5207 6877 6928
 5437 5903 6873
 5802 5874 6637
 6730 5346 6731
 5792 5687 6625
 108 6485 7243
 5445 5440 6873
 6682 5908 7040
 6513 6020 7389
 6118 6761 6762
 5077 5086 6936
 6919 6269 6926
 5454 6743 6744
 5544 5579 6774
 7117 6678 7131
 6675 6048 6676
 5259 5675 6796
 6530 5026 6531
 7105 6901 7162
 103 5034 6565
 5994 6746 6747
 5341 5343 6657
 5904 6269 6919
 5993 5994 6748
 6447 6449 6450
 6449 6448 6458
 5057 5058 6519
 5708 5184 6691
 5089 5109 5110
 6631 6191 7427
 6598 6264 6599
 5403 6150 6903
 6259 5888 6719
 7211 5042 7226
 5190 5182 6865
 5212 5215 6647
 6936 5120 6998
 5142 5167 6705
 6884 5479 7029
 6416 6894 7261
 5798 6041 6831
 5272 5515 5526
 5515 5327 5572
 6669 6670 6671
 6559 5025 6560
 5911 5284 6916
 5063 5064 5065
 5487 5486 6772
 6653 5555 6654
 5767 5800 6807
 6802 6217 6803
 6530 6531 6532
 6450 6449 6451
 6458 6448 6464
 5089 5110 5112
 5110 5109 5111
 5064 5061 6941
 6253 6045 6907
 6807 6135 6991
 5235 5239 6730
 5526 5515 5541
 5572 5327 6115
 6671 6670 6674
 6669 6671 6672
 5442 5444 6682
 6104 6992 7231
 5065 5064 5066
 6118 5265 6761
 6450 6451 6452
 6458 6464 6465
 5702 6632 6951
 5110 5111 5126
 5111 5109 6517
 5089 5112 6499
 6650 6009 6651
 5769 5879 6791
 5526 5541 5542
 6115 5327 7107
 5572 6115 6284
 6672 6671 6673
 6537 6208 6538
 5066 5064 5068
 5065 5066 5067
 5039 5054 6948
 6450 6452 6454
 6452 6451 6453
 6465 6464 6466
 5126 5111 5127
 5526 5542 5863
 5542 5541 5546
 6284 6115 7070
 5572 6284 6285
 5066 5068 5076
 5065 5067 5069
 6453 6451 6455
 6465 6466 6471
 5126 5127 5128
 5542 5546 5588
 5546 5541 5684
 7070 6115 7136
 5076 5068 5077
 5069 5067 5070
 6453 6455 6456
 6471 6466 6472
 5126 5128 5205
 5128 5127 5129
 5588 5546 5589
 5076 5077 5746
 5077 5068 5085
 5069 5070 5071
 5070 5067 5079
 6453 6456 6457
 5128 5129 5134
 5129 5127 5866
 5588 5589 5861
 5076 5746 6237
 5077 5085 5086
 5069 5071 5113
 5071 5070 5072
 6457 6456 6459
 5134 5129 5135
 5129 5866 6954
 5588 5861 5862
 6237 5746 6289
 5086 5085 5087
 5071 5072 5073
 6457 6459 6460
 6459 6456 6461
 5134 5135 5143
 5862 5861 6004
 5588 5862 6939
 6289 5746 6290
 5086 5087 5088
 5073 5072 5074
 6457 6460 6462
 5143 5135 5145
 5134 5143 5183
 5862 6004 6114
 6004 5861 6101
 5074 5072 5075
 5086 5088 5120
 6289 6290 6358
 5088 5087 5090
 6462 6460 6463
 6457 6462 6938
 5143 5145 5147
 5862 6114 6159
 6004 6101 6326
 5074 5075 5078
 6358 6290 6359
 5088 5090 5091
 6463 6460 6474
 5147 5145 5149
 6159 6114 6293
 5074 5078 5080
 5270 5271 5273
 5270 5269 5271
 5088 5091 6929
 5091 5090 5092
 6463 6474 6475
 5841 5948 5949
 5147 5149 5154
 5149 5145 5186
 5951 6012 6013
 5838 5837 5997
 5841 5842 5948
 5948 5976 5980
 5951 5778 6012
 5300 5304 5317
 6099 6098 6102
 6159 6293 6294
 6293 6114 6440
 6097 6098 6099
 5270 5273 6924
 6034 5880 6035
 5080 5078 5081
 5144 5141 5166
 5221 5219 5222
 5151 5148 5152
 5091 5092 5093
 5092 5090 5115
 6053 5831 6054
 5221 5222 5223
 5832 5831 6053
 6013 6181 6182
 5843 6065 6066
 6175 6112 6176
 5084 6904 6905
 5142 5141 5144
 6182 6219 6370
 5273 5271 5276
 5225 5231 5232
 5149 5186 5193
 112 5031 6543
 5051 90 6524
 6097 6096 6098
 5193 5186 5203
 5147 5154 5207
 6075 5827 6170
 5131 5130 5132
 5225 5224 5231
 5647 5650 6122
 6013 6012 6181
 5966 6190 6191
 5857 6096 6097
 5146 5148 5151
 6073 5827 6075
 5032 102 6545
 5918 6214 6215
 5918 6036 6214
 6075 6170 6184
 5208 5209 5211
 5297 5296 5298
 6241 5991 6242
 5189 5182 5190
 6053 6054 6209
 5295 5296 5297
 6104 5877 6107
 5876 5877 6104
 5137 5133 5204
 6294 6293 6295
 5992 5806 6140
 6182 6218 6219
 6184 6170 6185
 5146 5144 5148
 5267 5260 5268
 5948 5842 5976
 6054 5831 6641
 6034 6035 6361
 5227 5220 5228
 5298 5302 5305
 5140 5141 5142
 6205 5978 6206
 5140 5139 5141
 5904 6023 6269
 5307 5335 5399
 6209 6054 6302
 5857 5993 6096
 6109 6108 6110
 5178 5182 5189
 5884 5883 6076
 6102 6098 6437
 6111 6110 6112
 6076 5883 6167
 5259 5260 5267
 112 111 5031
 5295 5294 5296
 5310 5309 5311
 103 102 5032
 5286 5287 5288
 5995 6254 6898
 6184 6185 6345
 5153 5155 5156
 5904 5911 6023
 5267 5268 5274
 5995 6251 6254
 5335 5336 5337
 5919 6113 6282
 5292 5294 5295
 5308 5309 5310
 5153 5152 5155
 5307 5334 5335
 5317 5304 5672
 6067 6066 6277
 5843 6066 6067
 5091 5093 5785
 5081 5078 5082
 5093 5092 5094
 122 121 6467
 5919 6282 6720
 5274 5268 5275
 6109 6110 6111
 5223 5222 5224
 6111 6112 6175
 6345 6185 6346
 5232 5237 5238
 6151 5907 6152
 5283 5285 5286
 5138 5139 5140
 5365 5282 6119
 6361 6035 6363
 5142 5144 5146
 5148 5144 6611
 6050 6015 6364
 6223 5712 6279
 6107 5877 6108
 5189 5190 5191
 5176 5213 6634
 6219 6220 6413
 6079 6226 6231
 5276 5271 5319
 5907 5873 6116
 6116 6117 6222
 5274 5275 5291
 5713 5712 6223
 5683 5907 6151
 5335 5334 5336
 6219 6218 6220
 6131 6319 6321
 6073 6075 6515
 6065 6153 6275
 5273 5277 5278
 6107 6108 6109
 5291 5275 5292
 5142 5146 5167
 5855 5996 6328
 6401 6312 6404
 5641 5642 5696
 6131 5868 6319
 6102 6437 6438
 5238 5237 5240
 5203 5186 5745
 5193 5203 5233
 5207 5154 5673
 6245 6076 6609
 5337 5338 5339
 5132 5130 5756
 5295 5297 5679
 6209 6302 6390
 5153 5156 5157
 6231 6226 6398
 5337 5336 5338
 6182 6181 6218
 6102 6438 6439
 5302 5301 5350
 5157 5156 5158
 6176 6112 6913
 5238 5240 5241
 5138 5140 5742
 6023 5911 6024
 5208 5211 5748
 5211 5209 5212
 6023 6024 6216
 6065 5672 6153
 5298 5296 5301
 6116 5873 6117
 6097 6099 6130
 5276 5319 5320
 6254 6251 6498
 5337 5339 5694
 5641 5584 5642
 5268 5260 5695
 5308 5310 5324
 6130 6099 6425
 5189 5191 5612
 5230 5234 5235
 6321 6319 6503
 5976 5842 5999
 5282 5283 6596
 5033 95 6972
 6019 6258 6351
 6179 6076 6245
 5262 5261 5263
 5536 5518 5537
 5517 5518 5536
 6005 5608 6687
 6242 6334 6336
 5155 5152 5159
 5329 5291 6154
 5259 5267 5675
 6079 6080 6226
 5517 5491 5518
 5394 5395 5396
 5392 5391 5393
 5123 5122 5124
 6205 6206 6207
 5536 5537 5562
 6222 6117 6509
 6026 5963 6291
 5224 5222 5226
 5263 5261 5321
 5157 5158 5160
 5151 5152 5153
 6336 6334 6481
 5150 5170 5171
 5339 5340 5341
 5339 5338 5340
 5790 5791 6906
 5093 5094 5095
 6109 6111 6244
 5311 5309 5312
 6152 5907 6648
 5191 5190 5192
 5642 5643 5644
 6155 6154 6156
 5202 5200 5220
 5562 5537 5563
 5024 98 6493
 5317 5672 5843
 5081 5083 5084
 5396 5395 5397
 5929 6015 6050
 5241 5240 5244
 6044 6339 6340
 5198 5200 5202
 5563 5537 6707
 5292 5275 5293
 5274 5291 5329
 5562 5563 5583
 5198 5199 5200
 5262 5263 5264
 6096 5993 6196
 5400 5397 5401
 5966 5967 6190
 5232 5238 5376
 6034 6361 6362
 5444 5445 5446
 5308 5306 5309
 5160 5158 5161
 5240 5237 5331
 5155 5159 5178
 6328 5996 6514
 5171 5172 5173
 6336 6481 6490
 6351 6258 6352
 5988 6077 6078
 5390 5391 5392
 5171 5173 6593
 5448 5449 5456
 5095 5097 5119
 5875 5754 6808
 5289 5300 6592
 5843 5672 6065
 5583 5563 5584
 5745 5186 6930
 5453 5451 6149
 6286 6241 6414
 5583 5584 5641
 5320 5319 5325
 5233 5352 5353
 6369 6374 6375
 6351 6352 6486
 6375 6374 6385
 5171 5170 5172
 6275 6153 6513
 6369 6368 6374
 5673 5154 5744
 5241 5244 5245
 5207 5673 5674
 5264 5266 5701
 5461 5475 5476
 5132 5756 5757
 5378 5374 5569
 5990 6241 6286
 5446 5447 5448
 5341 5340 5342
 5178 5159 5182
 5393 5391 5462
 6108 6633 6640
 5456 5457 5463
 5456 5449 5457
 5160 5161 5162
 5161 5158 5180
 89 90 6555
 5386 5384 5533
 5212 5209 5214
 5341 5342 5343
 6204 6026 6752
 5748 5211 5827
 6019 6257 6258
 6418 6223 6480
 5396 5397 5400
 5537 5518 5582
 6091 6368 6369
 6508 6119 6963
 5392 5393 5394
 5647 5648 5650
 5286 5288 5692
 5320 5325 5326
 5200 5199 5201
 5289 5299 5300
 6152 6648 6649
 6349 6119 6508
 5860 5783 6325
 5262 5264 6702
 6195 6049 6274
 6015 5930 6016
 6375 6385 6478
 5973 5796 6141
 6179 6245 6492
 5412 5411 5413
 6270 6213 6271
 5084 5083 6904
 6105 5933 6233
 6129 6128 6409
 5202 5220 5227
 5324 5310 5773
 5958 6049 6195
 5173 5172 5174
 6139 6027 6381
 6486 6352 6487
 5713 6223 6418
 5173 5174 5175
 6127 5851 6128
 5095 5094 5096
 5394 5393 5395
 5459 5460 5461
 5320 5326 5743
 5463 5457 5464
 6171 6002 6255
 5329 6154 6155
 6213 6084 6386
 5612 5191 5896
 5536 5562 5763
 5385 5384 5386
 5123 5124 5125
 5593 5594 6840
 5701 5266 6630
 5157 5160 5902
 5300 5299 5303
 5192 5190 5194
 5779 5952 5953
 6171 6255 6406
 5245 5244 5248
 6105 6233 6417
 6018 5755 6019
 5343 5342 5344
 5410 5409 5411
 5356 5354 5688
 5404 5401 6638
 6085 6213 6270
 5458 5459 5479
 6331 6046 6332
 5294 5293 5693
 5962 6180 6304
 6130 6425 7013
 119 118 6571
 5397 5395 5885
 5923 5925 6186
 99 98 5024
 5233 5353 5640
 5340 5338 5573
 5934 5933 6105
 5695 5260 6658
 5446 5445 5447
 5464 5467 6739
 5343 5344 5345
 5458 5455 5459
 5464 5466 5467
 5410 5411 5412
 5961 6072 6162
 5962 5896 6180
 6226 6227 7035
 6127 6128 6129
 5132 5757 6614
 5723 5221 6628
 6203 6026 6204
 5412 5413 5414
 5988 6078 6079
 5990 5819 5991
 5326 5325 5332
 5162 5161 5163
 6085 6084 6213
 5476 5475 5488
 96 95 5033
 5175 5174 5210
 5583 5641 5652
 5657 5655 7094
 5162 5163 5164
 5444 5446 5908
 5582 5518 6688
 5196 5197 5198
 5207 5674 6877
 5159 5152 6612
 5125 5130 5131
 5289 5287 5299
 6139 6381 6429
 6327 6127 6878
 110 109 6567
 5845 5225 6594
 5674 5673 5831
 5325 5319 5690
 5467 5468 5469
 5757 5756 5758
 5326 5332 5333
 5454 5455 5458
 5343 5345 5398
 5448 5456 6855
 5095 5096 5097
 5701 6630 6631
 5990 5991 6241
 6397 6298 6424
 6142 6188 6383
 5212 5214 5215
 6108 5877 6633
 5184 5169 6868
 107 106 5025
 5172 5170 6148
 5944 6027 6139
 5233 5203 5352
 5218 5217 5219
 5748 5827 6073
 5456 5463 5465
 6126 6127 6327
 5345 5344 5361
 5464 5457 5466
 5101 5103 5121
 5392 5394 5629
 5703 5496 6884
 5467 5469 5483
 5414 5413 5415
 5219 5217 5826
 5467 5466 5468
 5292 5293 5294
 6038 6106 6202
 5645 5643 6917
 6381 6027 6382
 5202 5227 6169
 5653 5918 6627
 5644 5645 5646
 5908 5446 6725
 5201 5199 5621
 5245 5248 5249
 6162 6072 6163
 5388 5389 5390
 5644 5646 5647
 5365 6119 6349
 5324 5773 5774
 6171 6406 6434
 94 93 5055
 92 93 5027
 5215 5216 5217
 5096 5094 5104
 5345 5361 5362
 5531 5532 6787
 5510 5511 5512
 5512 5519 5520
 5329 6155 6157
 5215 5214 5216
 6299 5780 6759
 5752 5780 6299
 5716 5413 6894
 6299 6759 6760
 5333 5332 5347
 5415 5413 5716
 5390 5389 5391
 5520 5529 5530
 6297 6273 6298
 5783 5514 6845
 5097 5096 5098
 5512 5511 5519
 90 91 5035
 5198 5197 5199
 5253 5248 5330
 5125 5124 5130
 5752 6299 6392
 5476 5488 5489
 5414 5415 5416
 5520 5519 5529
 5510 5509 5511
 5192 5194 5195
 5508 5509 5510
 5828 5635 6809
 5410 5412 5704
 5689 5370 6400
 6079 6078 6080
 6126 5851 6127
 5388 5390 5706
 5362 5361 5557
 5097 5098 5099
 5508 5510 5516
 5504 5503 5505
 5523 5505 5524
 5520 5530 5531
 5210 5174 5768
 5416 5415 5417
 5758 5756 5878
 5650 5651 5653
 5757 5758 5759
 5674 5831 5832
 5658 5657 5659
 6383 6188 6384
 5162 5164 5185
 5216 5214 5813
 5531 5530 5532
 121 120 5049
 5333 5347 5349
 6142 6141 6188
 5245 5249 5328
 5549 5551 6786
 5748 6073 6074
 5828 6809 6810
 5532 5530 5534
 5218 5219 5221
 5695 6658 6659
 5532 5534 5535
 5215 5217 5218
 5818 5968 6132
 5099 5098 5100
 5251 5255 5323
 5523 5524 5543
 5543 5524 5544
 5201 5621 5622
 6163 6072 6197
 5324 5774 5899
 5535 5534 5538
 5464 6739 6767
 5504 5505 5523
 5249 5248 5253
 5416 5417 5418
 5333 5349 5623
 5461 5460 5475
 5544 5524 5564
 5519 5511 5545
 5535 5538 5539
 5312 6629 6679
 5539 5538 5560
 96 97 5038
 5491 5489 5668
 5532 5535 5540
 5623 5851 6126
 5973 6141 6142
 5490 5491 5517
 5656 5655 5657
 5934 6105 6491
 5929 5793 5930
 5539 5560 5561
 5099 5100 5101
 5561 5591 5592
 5195 5194 5206
 5596 5597 5598
 5383 5384 5385
 5656 5657 5658
 5418 5417 5419
 5469 5470 5471
 5561 5560 5591
 5660 5659 5662
 5614 5615 5616
 5594 5592 5595
 5383 5385 6082
 5598 5597 5686
 5362 5557 5558
 5614 5613 5615
 5557 5361 5575
 5388 5386 5389
 5400 5401 5402
 5216 5813 5818
 5759 5758 5836
 5256 5252 5322
 5561 5592 5593
 5790 5687 5791
 5490 5489 5491
 5419 5417 5420
 5476 5489 5490
 5598 5686 5687
 5674 5832 5833
 5101 5100 5102
 5164 5165 5168
 5594 5595 5596
 5596 5595 5597
 5791 5687 5792
 5791 5792 5793
 5210 5768 5824
 5943 5938 6832
 5593 5592 5594
 5615 5613 6010
 5899 5774 5900
 5560 5538 5581
 6083 5839 6084
 5544 5564 5577
 5206 5194 5812
 5623 5349 5850
 5793 5792 5977
 5707 5184 5708
 5201 5622 5840
 5490 5517 6008
 5598 5687 5790
 5616 5615 5617
 5419 5420 5421
 5100 5098 5114
 5791 5793 5929
 5594 5596 5601
 5597 5595 5717
 5577 5564 5578
 5419 5421 5422
 5551 5553 5605
 5759 5836 5837
 91 90 5051
 109 108 5044
 99 100 5026
 5523 5543 5571
 5659 5657 5666
 5101 5102 5103
 5900 5774 5933
 5210 5824 5855
 5624 5617 5625
 5752 5558 5780
 5995 5836 6045
 5616 5617 5624
 5759 5837 5838
 5837 5836 5995
 5874 5875 5876
 114 115 5041
 5872 5822 5950
 5103 5102 5105
 5710 5712 5713
 5730 5731 5732
 5977 5792 5978
 5794 5795 5839
 5835 5881 5919
 5578 5564 5755
 5899 5900 5920
 5876 5875 5877
 5929 5930 6015
 5586 5587 5749
 5850 5349 5897
 5794 5682 5795
 5715 5714 5754
 5732 5731 5733
 5557 5575 5576
 5749 5587 5750
 5620 5604 5639
 5362 5558 5752
 5422 5421 5423
 5422 5423 5424
 5986 5987 5988
 5553 5552 5556
 5553 5556 5567
 5800 5799 5801
 5503 5501 5910
 5909 6031 6032
 103 104 5034
 5709 5710 5711
 5824 5768 5852
 5833 5832 5834
 5852 6022 6051
 5940 5942 5944
 114 113 5040
 118 117 5047
 5734 5737 5738
 5803 5806 5807
 5811 5810 5869
 5761 5669 5805
 5835 5880 5881
 89 88 5053
 5430 5431 5434
 5567 5556 5931
 5864 5711 5979
 5890 5891 5893
 5923 5924 5925
 5840 5622 5841
 5855 5824 5996
 5921 5893 5922
 6078 6077 6287
 5551 5552 5553
 5841 5622 5842
 5637 5635 5828
 5681 5682 5794
 5767 5799 5800
 5852 5768 6022
 5625 5765 5786
 5544 5577 5579
 5874 5754 5875
 5821 5820 5822
 5913 5912 5914
 5927 5982 5983
 5738 5781 5782
 5802 5754 5874
 5909 5782 6031
 5869 5810 5870
 5874 5876 6093
 5890 5893 5921
 5944 5942 5945
 5955 5954 6144
 101 102 5042
 5508 5499 5509
 5681 5580 5682
 5585 5681 5751
 5721 5620 5867
 5775 5846 5906
 5818 5813 5928
 5900 5933 5934
 5905 5963 6025
 5761 5805 5912
 5945 5946 5947
 5947 5946 5985
 5424 5425 5426
 5565 5630 5631
 5732 5733 5734
 5750 5883 5884
 5765 5764 5766
 5881 5880 6034
 94 95 5043
 5192 5195 5196
 5430 5429 5431
 5625 5617 5764
 5700 5814 5815
 5761 5912 5913
 5775 5776 5846
 5794 5839 5984
 5872 5950 6055
 5938 5939 5940
 5576 5604 5620
 5707 5708 5709
 5801 5816 5817
 5912 5805 5966
 5865 5955 5956
 5982 5981 6043
 6432 6270 6433
 6 87 6578
 5585 5751 5823
 5709 5711 5753
 5735 5733 5736
 5966 5805 5967
 5807 5806 5992
 5919 6089 6113
 5428 5427 5429
 5750 5587 5883
 5626 5624 5796
 5664 5669 5761
 5676 5784 5898
 5895 5970 5971
 5981 5926 6088
 5939 5937 6048
 5576 5620 5721
 5603 5619 5788
 5788 5619 5789
 5623 5850 5851
 5772 5810 5811
 5923 5922 5924
 5940 5939 5941
 6000 5965 6001
 5625 5764 5765
 5798 5766 6040
 5956 5955 5957
 5961 6071 6072
 5971 5972 6028
 5753 5711 5864
 5765 5766 5767
 5801 5799 5816
 5833 5834 5835
 5835 5834 5880
 5749 5858 5859
 5586 5555 5587
 5709 5708 5710
 5715 5802 5803
 5788 5829 6017
 5829 5789 5830
 5944 5945 6027
 105 104 5046
 5814 5699 5916
 5767 5798 5799
 5922 5893 5975
 5977 5978 6039
 5986 5985 5987
 5428 5429 5430
 5935 5849 5936
 5431 5429 5432
 5604 5575 5728
 5636 5635 5637
 5797 5796 5973
 5798 6040 6041
 5945 5942 5946
 5982 6043 6044
 5734 5733 5735
 5749 5750 5858
 5772 5809 5810
 5938 5937 5939
 6025 5963 6026
 5971 5970 5972
 5576 5575 5604
 5788 5789 5829
 5803 5802 5806
 5928 5813 6123
 5894 5892 5895
 5427 5425 5720
 5616 5624 5626
 5626 5796 5797
 5891 5889 5892
 5603 5602 5619
 5715 5754 5802
 5775 5736 5776
 5738 5782 5909
 5784 5783 5860
 5964 5830 5965
 5905 5860 5963
 5890 5889 5891
 5895 5915 5970
 5921 5922 5923
 5927 5981 5982
 5936 5938 5943
 5579 5577 5602
 5676 5783 5784
 5727 6006 6007
 5800 5801 5882
 5814 5916 5917
 5872 6055 6056
 5103 5105 5106
 5106 5107 5108
 5426 5427 5428
 5619 5602 5777
 5847 5849 5935
 101 100 5045
 5825 5781 5844
 5847 5848 5849
 5940 5941 5942
 5556 5552 5722
 5947 5986 5989
 5426 5425 5427
 5579 5603 5719
 5734 5735 5737
 5738 5737 5781
 5936 5849 5937
 5891 5892 5894
 124 123 5048
 5700 5699 5814
 5730 5729 5731
 5770 5769 5771
 5811 5869 5871
 5964 5965 6000
 5767 5766 5798
 5846 5776 5847
 5870 5810 6819
 5865 5954 5955
 5106 5105 5107
 5698 5700 5854
 5710 5708 5712
 5888 5889 5890
 5925 5926 5927
 5927 5926 5981
 5741 5820 5821
 5829 5830 5964
 5888 5887 5889
 5676 5514 5783
 5630 5632 5804
 5784 5860 5905
 5632 5566 5633
 5769 5677 5879
 5847 5776 5848
 5859 5858 6020
 5424 5423 5425
 5579 5602 5603
 5741 5819 5820
 5638 5637 5677
 5871 5869 5998
 5630 5566 5632
 5735 5736 5775
 5797 5973 5974
 5925 5924 5926
 6071 5960 6094
 5585 5580 5681
 5636 5637 5638
 5919 5881 6089
 5936 5937 5938
 5821 5822 5872
 5895 5892 5915
 5947 5985 5986
 109 110 5036
 6227 6080 6228
 5772 5771 5809
 5525 5614 5760
 5678 5770 5787
 5779 5951 5952
 5168 5184 5707
 5678 5677 5769
 5782 5781 5825
 5638 5677 5678
 5634 5633 5635
 5634 5635 5636
 5636 5638 5808
 121 122 5039
 5667 5663 5725
 5770 5771 5772
 5632 5633 5634
 5492 5729 5730
 5702 5714 5715
 6226 6080 6227
 5218 5221 5723
 5961 5960 6071
 5886 5887 5888
 5779 5778 5951
 5993 5856 5994
 5664 5667 5669
 5565 5566 5630
 5678 5769 5770
 5918 5665 6036
 5865 5864 5954
 5525 5613 5614
 5669 5667 5670
 5647 5646 5648
 5551 5550 5552
 5482 5514 5676
 5380 5580 5585
 5187 5177 5188
 6142 6383 6497
 5650 5648 5651
 5753 5864 5865
 5698 5699 5700
 5465 5463 5481
 5565 5364 5566
 5187 5188 5208
 5448 5447 5449
 5549 5550 5551
 5492 5493 5729
 5607 5600 5680
 5493 5487 5494
 5525 5513 5613
 5664 5663 5667
 5347 5332 5348
 5169 5177 5187
 5741 5740 5819
 5347 5348 5363
 5465 5481 5482
 5727 5611 6006
 105 106 6542
 5482 5513 5514
 5702 5366 5714
 5886 5718 5887
 5649 5778 5779
 5363 5364 5565
 5122 5117 6087
 5685 5727 5868
 5547 5555 5586
 5514 5513 5525
 5857 5856 5993
 5959 5960 5961
 6042 6003 6177
 5653 5665 5918
 5364 5348 6147
 5366 5360 5367
 5380 5379 5580
 6021 6246 6247
 6060 6579 6909
 5482 5481 5513
 94 5043 6573
 5363 5348 5364
 5698 5697 5699
 5550 5548 5554
 5469 5468 5470
 5606 5608 6005
 5661 5663 5664
 5492 5487 5493
 5402 5401 5403
 5251 5252 5255
 5608 5607 5609
 116 117 5037
 5549 5548 5550
 5367 5369 5568
 5498 5718 5886
 5168 5169 5184
 5502 5501 5503
 5683 5873 5907
 5383 5382 5384
 5654 5655 5656
 5649 5645 5778
 5255 5256 5259
 5795 5682 6011
 6274 6049 6367
 5606 5600 5607
 5118 5117 5122
 5247 5250 5251
 6235 6234 6272
 5606 5607 5608
 5288 5289 5691
 5739 5740 5741
 6235 6272 6273
 5685 5611 5727
 5953 5952 6442
 5196 5195 5197
 5740 5387 5853
 5502 5504 5724
 5507 5499 5508
 5359 5366 5702
 5251 5250 5252
 5502 5503 5504
 5654 5651 5655
 5653 5654 5665
 5255 5252 5256
 5164 5163 5165
 5454 5453 5455
 5547 5527 5555
 5959 5957 5960
 5671 5856 5857
 5458 5479 5480
 5293 5275 6711
 5254 5253 5257
 5685 5868 6131
 6217 6172 6407
 5500 5402 5501
 5528 5548 5549
 5259 5256 5260
 5229 5379 5380
 6047 6046 6331
 6060 6063 6579
 5249 5253 5254
 6292 6393 6516
 5578 5755 6018
 6203 6204 6502
 5380 5585 6827
 5842 5622 6852
 5653 5651 5654
 6234 6029 6314
 5385 5386 5388
 6038 6037 6106
 5443 5697 5698
 5169 5165 5177
 6352 6258 6353
 6083 6084 6085
 5475 5460 5590
 6238 6484 6485
 5485 5487 5492
 5168 5165 5169
 5372 5370 5689
 6030 6234 6235
 5661 5660 5663
 5453 6149 6883
 5462 5391 6708
 6337 6298 6397
 5500 5501 5502
 6368 6198 6419
 5108 5117 5118
 119 120 5029
 112 113 5028
 5449 5447 5705
 5258 5257 5261
 5498 5494 5718
 5371 5373 5726
 6341 6266 6421
 5480 5479 5496
 5958 5959 6049
 6296 6273 6297
 5485 5478 5486
 5459 5455 5460
 5953 6442 6443
 5247 5246 5250
 5642 5584 5643
 5886 5888 6259
 6085 6270 6432
 5254 5257 5258
 5646 5645 5649
 5683 5570 5873
 5528 5547 5548
 5485 5486 5487
 5367 5368 5369
 5104 5094 6900
 6488 6174 6489
 5381 5382 5383
 6019 5755 6257
 5567 6172 6217
 5232 5231 5237
 5612 5962 6009
 5258 5262 5290
 6242 6243 6334
 5567 5931 6172
 5264 5263 5265
 6001 6003 6042
 5367 5360 5368
 6261 6160 6521
 6003 6002 6171
 5956 5957 5958
 5288 5287 5289
 6163 6305 6482
 5970 5915 6183
 5495 5499 5507
 6292 6138 6393
 5571 5543 6410
 5213 5600 5606
 6030 6029 6234
 5991 5819 6699
 5739 5387 5740
 5450 5451 5452
 5318 5611 5685
 5029 120 6563
 6032 6031 6239
 5359 5358 5360
 6173 6360 6426
 5433 6661 6662
 5234 5228 6617
 5800 5882 6135
 6239 6031 6342
 6003 6171 6753
 5400 5402 5500
 5258 5261 5262
 5731 6145 6833
 6091 6198 6368
 5958 5957 5959
 6318 6103 6396
 5359 5360 5366
 5658 5659 5660
 5452 5453 5454
 5950 5822 6037
 5780 6221 6371
 5984 5839 6083
 5671 5627 5856
 5229 5230 5379
 5628 5671 5932
 5422 5424 6256
 5528 5527 5547
 6039 5978 6205
 6238 6069 6484
 6303 6224 6377
 6044 6043 6301
 6235 6273 6296
 5484 5478 5485
 6146 6018 6208
 6060 6061 6063
 6056 6055 6354
 5571 6410 6479
 5950 6037 6038
 5850 5897 6021
 5823 5751 6300
 6360 6174 6488
 6113 6089 6422
 5369 5368 5370
 6071 6094 6329
 5230 5228 5234
 5521 5496 5703
 5644 5643 5645
 5473 5477 5506
 5968 5969 6086
 5731 5729 6145
 5369 5370 5371
 5662 5659 6726
 6157 6164 6165
 5809 6046 6047
 5711 5710 6813
 6041 6040 6224
 5105 5102 6324
 6056 6356 6751
 5223 5225 5845
 6041 6224 6303
 5601 5596 6806
 6160 6064 6365
 6240 6239 6330
 6482 6305 6483
 5887 5718 6134
 5444 5440 5445
 5495 5498 5499
 6086 5969 6372
 6095 6411 6495
 5853 5387 6689
 6225 6040 6768
 5443 5418 5697
 5652 5641 6518
 5610 5628 5762
 6260 6160 6261
 6135 6136 6137
 6189 6177 6476
 5522 5527 5528
 5820 5819 5990
 6329 6376 6441
 6278 5954 6740
 6103 5972 6248
 6365 6064 6366
 6297 6298 6337
 5909 6032 6133
 5471 5472 5473
 6323 6022 6942
 6267 6341 6387
 6028 5972 6103
 5809 5771 6046
 6157 6155 6164
 5964 6000 6232
 5658 5660 5661
 6021 6100 6246
 5968 5928 5969
 6044 6301 6339
 5871 6090 6091
 6161 6238 6250
 87 6 5052
 5438 5442 5450
 5243 5246 5247
 5917 6029 6030
 5472 5470 5559
 5246 5242 5351
 6007 6006 6347
 6032 6239 6240
 6210 6083 6880
 6339 6301 6494
 5081 5082 5083
 5780 5558 6221
 5377 5381 5574
 5108 5116 5117
 6136 6138 6292
 6329 6094 6376
 6372 5969 6373
 5906 6160 6260
 6163 6197 6305
 5818 5928 5968
 5906 5846 6064
 6028 6103 6318
 5344 5342 6178
 5371 5370 5372
 6001 5965 6002
 5830 5789 6014
 6232 6000 6344
 6135 5882 6136
 6056 6354 6355
 5495 5494 5498
 6067 6277 6388
 5471 5470 5472
 6267 6266 6341
 6100 6262 6263
 5917 5916 6029
 5450 5442 5451
 5371 5372 5373
 5828 6810 6811
 5522 5521 5527
 5408 5570 5683
 5264 5265 5266
 5377 5574 6717
 5468 5466 6124
 5477 5478 5484
 5825 5844 6057
 6161 6069 6238
 6265 5920 6266
 5693 5293 6394
 5906 6064 6160
 5433 6660 6661
 5452 5451 5453
 5971 6028 6092
 5871 5998 6090
 5083 5150 5179
 6203 6502 6505
 6173 6174 6360
 5578 6018 6146
 6265 6266 6267
 5381 5378 5382
 5312 5309 6629
 6187 6427 6428
 5984 6210 6211
 5480 5497 5618
 122 123 5054
 5278 5279 5280
 6301 6043 6416
 6227 6229 6315
 6136 5882 6138
 5612 5896 5962
 6001 6002 6003
 6021 5897 6100
 5 125 5050
 5493 5494 5495
 6172 5931 6173
 6091 6090 6198
 6100 5897 6262
 5213 5599 5600
 6276 5998 6322
 5428 5430 5441
 5373 5372 5374
 5442 5440 5444
 5316 5387 5739
 5318 5315 5611
 5150 5082 5170
 5899 5920 6264
 5438 5440 5442
 5497 5521 5522
 6189 6476 6477
 6224 6040 6225
 6090 5998 6276
 5235 5234 5236
 5411 5409 5439
 5984 6083 6210
 6187 6140 6427
 5355 5357 5375
 6056 6355 6356
 6297 6337 6338
 5434 5436 5747
 5208 5188 5209
 6025 6026 6203
 5416 5418 5443
 6047 6331 6333
 5269 5265 6118
 6058 6069 6161
 6181 6012 6268
 5352 5203 6914
 5992 6140 6187
 5628 5627 5671
 5477 5474 5478
 5377 5374 5378
 5229 5228 5230
 5108 5107 5116
 6173 5931 6174
 6057 5844 6068
 6144 5954 6278
 5223 5224 5225
 5373 5374 5377
 5988 5987 6077
 5316 5318 5387
 6060 6059 6061
 6036 5665 6280
 5301 5296 6615
 5357 5358 5359
 5450 5452 6121
 5825 6057 6058
 5725 5663 6874
 5116 5107 6507
 5298 5301 5302
 6356 6355 6357
 5357 5356 5358
 5497 5496 5521
 5280 5281 5282
 6042 6177 6189
 6144 6278 6436
 6058 6057 6069
 5610 5627 5628
 5480 5496 5497
 87 88 5030
 5473 5474 5477
 5407 5409 5410
 6190 6192 6399
 5266 5265 5269
 6242 5991 6243
 6148 5170 6889
 5280 5282 5365
 5403 5405 6150
 6264 5920 6265
 6347 6006 6348
 5138 5137 5139
 5242 5236 6666
 5608 5609 5610
 6509 6117 6510
 5239 5243 5346
 6536 6179 6920
 5243 5242 5246
 5436 5437 5438
 6307 6306 6308
 5278 5277 5279
 5283 5281 5284
 5316 5315 5318
 5377 5378 5381
 6042 6189 6249
 5473 5472 5474
 5610 5609 5627
 5626 5797 6143
 5236 5234 6166
 5438 5437 5440
 5266 5269 5270
 5433 5421 6660
 5884 6076 6179
 5403 5401 5404
 5282 5281 5283
 5313 5315 5316
 6067 6388 6389
 6212 6317 6391
 5985 5946 6081
 5803 6168 6632
 6422 6089 6423
 6389 6388 6395
 5182 5159 6125
 5305 5302 5306
 5408 5406 5570
 5992 6187 6199
 6287 6077 6288
 5083 5082 5150
 5368 5360 6734
 5233 5640 6412
 5365 6349 6380
 5280 5279 5281
 5235 5236 5239
 5311 5313 5314
 5845 6594 6595
 5118 5122 5123
 5437 5435 5903
 5279 5277 6158
 5213 5181 5599
 6316 6230 6405
 5403 5404 5405
 5131 5132 5133
 6077 5987 6789
 5405 5404 5406
 6063 6061 6200
 5355 5354 5356
 5355 5356 5357
 5436 5435 5437
 5434 5435 5436
 6063 6200 6201
 5904 5284 5911
 6334 6243 6335
 5206 5812 6212
 6095 6343 6411
 5273 5276 5277
 6212 5812 6317
 5227 5228 5229
 6051 6022 6323
 6319 5868 6320
 5405 5406 5407
 6059 6033 6062
 5977 6039 6120
 6016 6059 6060
 5423 5421 5433
 5313 5312 5315
 5884 6179 6536
 5353 5352 5354
 5176 5181 5213
 6252 6045 6253
 5136 5133 5137
 6112 6110 6194
 5407 5408 5409
 5995 6045 6251
 6190 5967 6192
 5118 5123 5901
 5905 6025 6070
 6229 6230 6316
 6036 6280 6281
 5407 5406 5408
 5434 5431 5435
 5239 5236 5242
 5599 5181 6236
 5286 5285 5287
 5283 5284 5285
 6251 6045 6252
 5239 5242 5243
 5311 5312 5313
 6282 6113 6283
 6201 6306 6307
 5852 6051 6052
 6192 5967 6193
 6579 6063 6580
 6168 6378 6379
 5353 5354 5355
 6229 6228 6230
 5173 5175 5176
 6201 6200 6306
 6227 6228 6229
 5307 5303 5334
 6403 6415 6522
 5300 5303 5304
 5136 5137 5138
 5803 5807 6168
 5569 5374 6683
 6313 6312 6401
 5131 5133 5136
 6095 5999 6343
 6283 6113 6921
 6201 6307 6309
 6522 6415 6523
 5976 5999 6095
 6120 6039 6350
 6168 5807 6378
 6403 6402 6415
 5305 5306 5308
 6016 5930 6033
 5285 5284 5904
 6016 6033 6059
 6311 6313 6408
 5953 6443 6444
 6444 6443 6445
 6313 6401 6402
 5176 5175 5181
 6311 6312 6313
 6313 6402 6403
 6311 6310 6312
 5304 5303 5307
 6309 6310 6311
 6309 6307 6310
 6549 6547 6976
 5147 5207 6928
 5906 6260 6838
 6548 6547 6549
 6135 6137 6991
 6567 6569 6570
 5564 5524 6773
 107 5025 6559
 5695 6659 6992
 5908 6725 7037
 6726 6454 6965
 6546 6547 6548
 6547 5045 6552
 6694 6693 6695
 6097 6130 6639
 5278 5280 6896
 6951 6632 7019
 6007 7185 7445
 6567 6568 6569
 6468 5049 6469
 120 119 6572
 5729 5493 6886
 7008 5913 7086
 5898 6643 6644
 5739 6783 6890
 5682 5580 6801
 5311 5314 6655
 5777 6488 7187
 106 5021 6542
 106 107 5021
 5631 5630 6814
 5285 5904 6919
 5022 5062 6566
 5925 5927 6696
 6546 5045 6547
 5921 5923 6718
 5022 5059 5062
 5728 5575 6848
 5299 6919 6926
 5888 5890 6719
 6124 5466 6844
 5915 5892 6821
 113 112 6543
 102 101 6545
 5039 122 5054
 95 94 6972
 90 5035 6555
 93 94 6573
 120 121 6563
 109 5044 6567
 98 97 6493
 118 5047 6571
 87 5030 6578
 90 89 6524
 121 5049 6467
 5187 5208 6622
 5983 6693 6694
 6693 6692 7012
 5549 6786 6862
 6031 5782 6834
 5219 5826 6619
 6094 5960 6860
 5669 5670 6835
 6676 5848 6677
 105 6542 6561
 5879 5677 6812
 5727 6007 6716
 6233 5933 6784
 5500 6490 7394
 5329 6157 6854
 6709 5901 6710
 5494 5487 6772
 5567 6217 6802
 6567 5044 6568
 6467 5049 6468
 6646 5212 6647
 7123 5180 7167
 104 105 6561
 5830 6014 6771
 6714 6713 6715
 6556 5046 6557
 5563 6707 6995
 5821 6751 6783
 6576 5027 7333
 5163 5161 6724
 6746 6745 7028
 6547 6552 6976
 5971 6092 6830
 5896 5191 6700
 5025 106 6556
 6123 5813 6861
 5612 6009 6650
 6822 5720 6823
 5771 5769 6791
 106 105 6556
 5898 6642 6643
 6890 6783 7006
 5114 5098 6864
 6280 7008 7086
 5752 6392 6750
 5900 5934 6733
 6435 5028 7402
 5300 5317 6592
 5173 5176 6593
 5152 5148 6612
 5225 5232 6594
 5283 5286 6596
 5228 5220 6617
 6227 6315 7035
 5144 5166 6611
 5133 5132 6614
 6076 6167 6609
 6063 6201 6580
 5296 5294 6615
 5831 5673 6641
 5715 5803 6632
 6110 6108 6640
 5221 5223 6628
 5918 6215 6627
 5837 5995 6898
 5266 5270 6630
 5213 5606 6634
 5907 6116 6648
 5401 5397 6638
 5309 5306 6629
 5260 5256 6658
 5877 5875 6633
 6398 6226 7035
 6119 5282 6596
 5608 5610 6687
 5186 5145 6930
 5835 5919 6720
 5421 5420 6660
 5537 5582 6707
 5641 5696 6518
 5518 5491 6688
 6325 5783 6845
 6026 6291 6752
 5083 5179 6904
 5275 5268 6711
 5387 5318 6689
 6016 6060 6909
 5264 5701 6702
 6166 5234 6617
 5413 5411 6894
 5446 5448 6725
 5463 5464 6767
 5819 5740 6699
 5954 5864 6740
 5650 5653 6627
 5391 5389 6708
 5467 5483 6739
 5290 5262 6702
 5872 6056 6751
 5691 5289 6592
 5659 5666 6726
 5514 5525 6845
 6171 6434 6753
 5780 6371 6759
 6040 5766 6768
 5666 5657 7094
 5635 5633 6809
 5551 5605 6786
 5710 5713 6813
 5169 5187 6868
 6177 6003 6753
 5170 5082 6889
 5938 5940 6832
 5810 5809 6819
 5456 5465 6855
 5236 6166 6666
 5754 5714 6808
 5733 5731 6833
 5532 5540 6787
 5791 5929 6906
 5585 5823 6827
 5496 5479 6884
 5594 5601 6840
 5674 5833 6877
 5596 5598 6806
 6160 6365 6521
 5663 5660 6874
 5979 5711 6813
 6127 6129 6878
 6083 6085 6880
 5622 5621 6852
 5094 5092 6900
 5370 5368 6400
 5778 5645 6917
 5315 5312 6679
 6394 5293 6711
 5455 5453 6883
 5373 5377 6717
 6125 5159 6612
 5360 5358 6734
 6288 6077 6789
 5203 5745 6914
 5193 5233 6412
 5351 5242 6666
 6112 6194 6913
 6243 5991 6699
 6179 6492 6920
 6113 6422 6921
 5273 5278 6924
 5999 5842 6852
 5374 5372 6683
 6313 6403 6408
 5091 5785 6929
 5120 5088 6929
 5862 6159 6939
 6453 6457 6938
 5135 5129 6954
 5542 5588 6939
 5755 5564 6773
 5524 5505 6773
 105 5046 6556
 6021 6247 6858
 6115 7107 7136
 6178 5342 6887
 6092 6856 6857
 5990 6286 6895
 5857 6097 6639
 5280 5365 6896
 5157 5902 6623
 6145 5729 6886
 5493 5495 6886
 6291 5963 6732
 5163 6724 6876
 5580 5379 6801
 6011 5682 6801
 5634 5636 6843
 5630 5804 6814
 5112 6945 6946
 5923 6186 6718
 5034 104 6561
 6044 6340 6692
 5095 5119 6908
 5575 5361 6848
 6052 6480 7264
 5208 5748 6622
 5528 5549 6862
 5782 5825 6834
 6342 6031 6834
 5960 5957 6860
 6620 5949 6621
 5022 115 5056
 6663 5420 6664
 5677 5637 6812
 6828 5894 6829
 6637 6093 6982
 5578 6146 6881
 5321 6778 6779
 5574 6714 6717
 5706 6737 6738
 5933 5774 6784
 5984 6211 6817
 6049 5959 6758
 5623 6126 6742
 6057 6068 6885
 5788 6017 6841
 5348 5332 6882
 5965 5830 6771
 5818 6132 6765
 5422 6256 6804
 5161 5180 6724
 6273 6272 6727
 5058 5040 6543
 6092 6028 6856
 6000 6001 6888
 5895 5971 6830
 5522 6862 6949
 5813 5214 6861
 5886 6259 6781
 5191 5192 6700
 6600 6413 6601
 5118 5901 6709
 5185 6769 6770
 6656 6657 7099
 5362 5752 6750
 5920 5900 6733
 5098 5096 6864
 6916 6158 6996
 6545 5045 6546
 5027 6573 6574
 5040 113 6543
 101 5045 6545
 121 5039 6563
 5027 93 6573
 94 5055 6972
 89 5053 6524
 6609 6167 6610
 6617 5220 6618
 6660 5420 6663
 6753 6434 6754
 6787 5540 6788
 6878 6129 6879
 6288 6789 6790
 110 6567 6570
 5045 100 6552
 5431 5432 6915
 5850 6021 6858
 5342 5340 6887
 5839 5795 6721
 5963 5860 6732
 6656 5341 6657
 5636 5808 6843
 7039 7216 7263
 5639 5604 6839
 6489 6174 6798
 5982 6044 6692
 5093 5095 6908
 6865 6125 6866
 5022 5056 5059
 5717 5595 6799
 5427 5720 6822
 5808 5638 6846
 6838 6260 6987
 5794 5984 6817
 5959 5961 6758
 6367 6049 6758
 5333 5623 6742
 5576 5721 6850
 5603 5788 6841
 5216 5818 6765
 5295 5679 6652
 5332 5325 6882
 6147 5348 6882
 6298 6273 6727
 6028 6318 6856
 6344 6000 6888
 6001 6042 6888
 5498 5886 6781
 5898 6644 6645
 6756 6757 7118
 6373 5969 6776
 5811 5871 6735
 5891 5894 6828
 6268 6707 6911
 5486 5478 6893
 5734 5738 6824
 5684 6947 7401
 5435 5431 6915
 5566 5364 6955
 5441 5430 6728
 5604 5728 6839
 6174 5931 6798
 5276 5320 6925
 5911 6916 6996
 5638 5678 6846
 5945 5947 6820
 5557 5576 6850
 5292 5295 6652
 6017 5829 6847
 5981 6088 6870
 6366 6064 6836
 5969 5928 6776
 5871 6091 6735
 5893 5891 6828
 5478 5474 6893
 5732 5734 6824
 5738 5909 6824
 5364 6147 6955
 5633 5566 6955
 6071 6329 6859
 5706 5390 6737
 5506 5477 6704
 5320 5743 6925
 5277 5276 6925
 6027 5945 6820
 5947 5989 6820
 108 107 6559
 6169 5227 6918
 6262 5897 6849
 5829 5964 6847
 6043 5981 6870
 5425 5423 6912
 6072 6071 6859
 5477 5484 6704
 5761 5913 6792
 5897 5349 6849
 5720 5425 6912
 5423 5433 6912
 5450 6121 6667
 6141 5796 6875
 5481 6767 6953
 5970 6183 6785
 6700 5196 6892
 5972 5970 6785
 5625 5786 6875
 5796 5624 6875
 5438 5450 6667
 5747 5436 6667
 5433 6662 6912
 5349 5347 6849
 5664 5761 6792
 6248 5972 6785
 5624 5625 6875
 6197 6072 6859
 5436 5438 6667
 6416 6043 6870
 5347 5363 6849
 5227 5229 6918
 5380 6827 6918
 5964 6232 6847
 5772 5811 6842
 5787 5770 6842
 5661 5664 6792
 6382 6027 6820
 6158 5277 6925
 5983 6692 6693
 5390 5392 6737
 5909 6133 6824
 5975 5893 6828
 6091 6369 6735
 5928 6123 6776
 5847 5935 6836
 6064 5846 6836
 5291 5292 6652
 5229 5380 6918
 5770 5772 6842
 5558 5557 6850
 5678 5787 6846
 5931 5556 6798
 5430 5434 6728
 5392 5629 6737
 5162 5185 6863
 5902 5160 6863
 6578 6364 6909
 5903 5435 6915
 5220 5200 6618
 5846 5847 6836
 6211 6210 6956
 5499 5498 6781
 5217 5216 6765
 6042 6249 6888
 6424 6298 6727
 6154 5291 6652
 5325 5690 6882
 5719 5603 6841
 6221 5558 6850
 5681 5794 6817
 5326 5333 6742
 5961 6162 6758
 5429 5427 6822
 5915 6821 6988
 5595 5592 6799
 5556 5722 6798
 5785 5093 6908
 5983 5982 6692
 5474 5472 6943
 5545 5511 6782
 6708 6350 7153
 5434 5747 6728
 6084 5839 6721
 5860 6325 6732
 5160 5162 6863
 5340 5573 6887
 5851 5850 6858
 7206 5571 7361
 6768 5764 6952
 6266 5920 6733
 5345 5362 6750
 5108 5118 6709
 5214 5209 6861
 5420 5417 6664
 5096 5104 6864
 5894 5895 6830
 5509 5499 6781
 6353 7067 7098
 6761 5321 6957
 6770 7002 7016
 5192 5196 6700
 5697 5418 6804
 5419 5422 6804
 5922 5975 6825
 5826 5217 6765
 6121 5452 6744
 6002 5965 6771
 6069 6057 6885
 5492 5730 6775
 5484 5485 6775
 5743 5326 6742
 5327 5023 7107
 5577 5578 6881
 5777 5602 6881
 5751 5681 6817
 5302 5350 7024
 6323 7018 7140
 5966 6191 6613
 5914 5912 6613
 5774 5773 6784
 5637 5828 6812
 5957 5955 6860
 6893 5474 6943
 6421 7055 7303
 5974 6440 7442
 5432 5429 6822
 5592 5591 6799
 5825 6058 6834
 5522 5528 6862
 5748 6074 6622
 5361 5344 6848
 5811 6735 6842
 116 5022 6566
 6757 6638 7118
 5472 5559 6943
 6088 5926 6826
 5044 108 6559
 5153 5157 6623
 5511 5509 6782
 6773 5505 6961
 6037 5822 6895
 5820 5990 6895
 6386 6084 6721
 6729 5235 6730
 5505 5503 6961
 5495 5507 6886
 5952 5951 7214
 5365 6380 6896
 5671 5857 6639
 99 5024 6552
 6128 5851 6858
 6348 6006 6679
 5031 111 6570
 6770 6769 7002
 6257 5755 6773
 6046 5771 6791
 6421 6266 6733
 5189 5612 6650
 5398 5345 6750
 5997 6898 6899
 6699 5853 6950
 6634 6005 6635
 6740 5979 6741
 6900 5115 6901
 6593 5176 6634
 5286 5692 6596
 6201 6309 6580
 6630 5270 6924
 5148 6611 6612
 5204 5133 6614
 5232 5376 6594
 5294 5693 6615
 5702 5715 6632
 5997 5837 6898
 5673 5744 6641
 6633 5875 6808
 5256 5322 6658
 6194 6110 6640
 5606 6005 6634
 5397 5885 6638
 6119 6596 6963
 5223 5845 6628
 6122 5650 6627
 5740 5853 6699
 5318 5685 6689
 5833 5835 6720
 5491 5668 6688
 5864 5979 6740
 5660 5662 6874
 5821 5872 6751
 5610 5762 6687
 5268 5695 6711
 5481 5463 6767
 5766 5764 6768
 5525 5760 6845
 6725 5448 6855
 5598 5790 6806
 5736 5733 6833
 5940 5944 6832
 5809 6047 6819
 6400 5368 6734
 5611 5315 6679
 6085 6432 6880
 5082 5078 6889
 6012 5778 6917
 5460 5455 6883
 5411 5439 6894
 5726 5373 6717
 6015 6016 6909
 5929 6050 6906
 5372 5689 6683
 5092 5115 6900
 5145 5135 6930
 6452 6453 6938
 5863 5542 6939
 5106 5108 6709
 6871 5445 6873
 5209 5188 6861
 5519 5545 6851
 5278 6896 6924
 5584 5563 6995
 6917 5643 6995
 5418 5419 6804
 102 103 6565
 5924 5922 6825
 6255 6002 6771
 5167 5146 6624
 5553 5567 6802
 5718 5494 6772
 5452 5454 6744
 6318 7061 7252
 5165 5163 6876
 5675 5267 6854
 5274 5329 6854
 6484 6069 6885
 6561 6542 6958
 6126 6327 6984
 5168 5707 6769
 5185 5164 6769
 5080 7223 7416
 5187 6622 6868
 5574 6713 6714
 5485 5492 6775
 5868 5727 6716
 6742 6126 6984
 6829 5894 6830
 5805 5669 6835
 6193 5967 6835
 5602 5577 6881
 5306 5302 7024
 6720 6282 7009
 5737 6838 6987
 5222 5219 6619
 5912 5966 6613
 5060 5057 6519
 5828 6811 6812
 5916 6983 7023
 5156 6999 7027
 5955 6144 6860
 5892 5889 6821
 5887 6134 6821
 6047 6333 6962
 5055 5089 6499
 5449 5705 6844
 5466 5457 6844
 5890 5921 6719
 5854 6486 7244
 100 99 6552
 111 110 6570
 6691 6868 7030
 6804 6256 6983
 5287 5285 6919
 6219 6413 6600
 5344 6178 6848
 6650 6651 6999
 5310 5311 6655
 5509 6781 6782
 6559 6560 6970
 6476 6177 6973
 5926 5924 6826
 5151 5153 6623
 5822 5820 6895
 6123 6861 6994
 5879 6812 7043
 6456 6455 6935
 5932 5671 6639
 6094 6860 6990
 5775 5906 6838
 5737 5735 6838
 5951 6013 7214
 5143 5147 6928
 5994 6747 6748
 5415 5716 6664
 5956 5958 7000
 6168 6379 7019
 6188 6141 7046
 6925 5743 6997
 5265 5263 6761
 5869 5870 6975
 6322 5998 6975
 5196 5198 6892
 5202 6169 6892
 5685 6131 6689
 6006 5611 6679
 5944 6139 6832
 5590 5460 6883
 6268 6012 6917
 6364 6015 6909
 5078 5075 6889
 116 115 5022
 5451 5442 6682
 5503 5910 6961
 6821 6134 6988
 6711 5695 6992
 6332 6046 6791
 5178 5189 6650
 6539 5762 7155
 5230 5235 6729
 5956 7000 7016
 6045 5836 6907
 5758 5878 6907
 5655 5651 6604
 6809 5633 6955
 5121 5103 6977
 5529 5519 6851
 5526 5863 6948
 6350 6039 7153
 6407 6172 6980
 6173 6426 6980
 5765 5767 6807
 5468 6124 6755
 5559 5470 6755
 5643 5584 6995
 5656 5658 6793
 6426 6537 6980
 5844 5781 6987
 5284 5281 6916
 5279 6158 6916
 5615 6010 6952
 5764 5617 6952
 6709 6710 6977
 6858 6247 7001
 5339 5341 6656
 5068 5064 6941
 5146 5151 6624
 5201 5840 6618
 5605 5553 6802
 6362 6584 6585
 6134 5718 6772
 6557 6324 7311
 6930 6954 7007
 5924 6825 6826
 5417 5415 6664
 6496 5640 7132
 5177 5165 6876
 5267 5274 6854
 6177 6753 6973
 6495 6496 6541
 6481 5629 7353
 5164 5168 6769
 5565 5631 6986
 5799 5798 6831
 7006 6356 7074
 6697 6698 7029
 5049 120 6572
 5927 5983 6696
 6320 5868 6716
 5140 5142 6705
 5967 5805 6835
 6629 5306 7024
 5720 6912 6978
 5200 5201 6618
 5226 5222 6619
 6769 5707 7002
 5194 5190 6865
 7157 6344 7419
 5910 5501 6903
 5402 5403 6903
 6023 6216 6616
 5497 5522 6949
 6010 5613 6953
 5513 5481 6953
 6165 6164 7068
 6353 7056 7067
 6819 6047 6962
 5087 5085 6967
 7315 6391 7345
 5889 5887 6821
 5712 5708 6691
 5547 5586 6766
 5554 5548 6766
 5759 5838 6853
 6614 5757 6853
 6999 6651 7027
 5457 5449 6844
 6401 6404 6914
 6753 6754 6973
 6775 5730 6985
 5709 5753 7002
 5949 5948 6533
 5255 5259 6796
 5916 5699 6983
 5151 6623 6624
 5753 5865 7016
 5543 5544 6774
 5921 6718 6719
 5299 5287 6919
 5156 5155 6999
 6370 6219 6600
 6912 6662 6978
 6376 6094 6990
 6692 6340 7012
 5746 5077 6936
 6817 6211 6981
 6262 6849 6986
 6978 6662 6979
 5662 6965 7166
 5773 5310 6655
 6484 5021 7243
 6983 6256 7023
 7161 6274 7227
 5661 6792 6793
 6953 6767 7021
 5042 102 6565
 5978 5792 6625
 6154 6652 6993
 6058 6161 6989
 6824 6133 6985
 5447 5445 6871
 5806 5802 6637
 5062 5063 7062
 6652 5679 6993
 5271 5269 6591
 5690 5319 6591
 5697 6804 6983
 5616 5626 6800
 5672 5304 6922
 5742 6705 6706
 6680 5331 7033
 6849 5363 6986
 6688 5668 7212
 5240 5331 6680
 6868 6622 7030
 7256 6816 7319
 6617 6618 7025
 5751 6817 6981
 6217 6407 7048
 5827 5211 6646
 6314 6029 7023
 5106 6709 6977
 6215 6588 6589
 5303 5299 6926
 6461 6456 6935
 5882 5801 6795
 5732 6824 6985
 5735 5775 6838
 5335 5337 6608
 5741 5821 6783
 5314 6890 7006
 5183 5143 6928
 6166 6617 7025
 5180 5158 7027
 6751 6356 7006
 6564 5863 7073
 5330 5248 6681
 5369 5371 6869
 5272 5526 6948
 6631 6630 7026
 6362 6361 6584
 5958 6195 7000
 6630 6924 7026
 6632 6168 7019
 5044 6559 6970
 6464 6448 6470
 5069 5113 6937
 5379 6729 6801
 6369 6375 7014
 5263 5321 6761
 5833 6720 6877
 6930 5135 6954
 5998 5869 6975
 6654 5703 6960
 5856 5627 6745
 6277 6066 6920
 6548 6549 6551
 5198 5202 6892
 5063 5065 6937
 5308 5324 6598
 6656 7099 7364
 6815 6816 7256
 6149 5451 6682
 5476 5490 6697
 6568 5044 6970
 6834 6058 6989
 6768 6952 7020
 6191 6631 7407
 5253 5330 6777
 5379 5230 6729
 5115 5090 7032
 6823 5720 6978
 5836 5758 6907
 6180 5896 7022
 6211 6956 6966
 5241 5245 7053
 5321 5261 6778
 6469 5049 6572
 6311 6408 7281
 96 5033 6577
 5667 5725 6837
 5103 5106 6977
 5479 5459 7029
 5297 5298 6599
 6128 6858 7001
 6763 5568 6764
 6455 7116 7446
 6243 6699 6950
 6353 6258 7056
 6156 6154 6993
 5060 6519 6967
 5454 5458 6743
 5480 5618 6743
 6039 6205 7153
 6871 6873 7061
 5359 5702 6951
 5375 5357 6951
 6172 6173 6980
 5560 5581 6818
 5786 5765 6807
 5883 5587 6653
 6254 6498 7122
 5470 5468 6755
 5745 6930 7007
 5658 5661 6793
 6300 5751 6981
 6324 6557 7449
 5983 6694 6696
 5338 5336 7065
 5781 5737 6987
 6187 6428 7004
 5281 5279 6916
 6183 5915 6988
 5183 7009 7085
 5617 5615 6952
 5848 5776 7051
 5694 5339 6656
 5321 6779 6957
 5085 6941 6967
 6320 6713 7370
 5174 5172 6867
 6342 6834 6989
 5085 5068 6941
 6860 6144 6990
 6646 6647 7017
 6129 6409 7003
 6861 5188 6994
 6391 6317 7345
 6131 6321 6690
 5841 5949 6620
 6929 5785 6944
 6648 6116 7010
 6812 6811 7043
 6791 5879 7041
 5363 5565 6986
 6781 6259 6782
 5816 5799 6831
 5178 6650 6999
 6901 5115 7096
 5486 6893 7015
 6810 6809 7011
 7139 6326 7169
 6563 5039 6564
 5181 5175 6626
 5861 5589 6933
 5730 5732 6985
 6493 97 6577
 6593 6635 6636
 5742 5140 6705
 6593 6634 6635
 6653 6654 6960
 6704 5484 7050
 5047 6566 7062
 6880 5226 7321
 6114 6004 6931
 6647 5723 7017
 5853 6690 6950
 6215 6214 6588
 6159 6294 7073
 5743 6742 6984
 5812 5194 6865
 6677 5848 7051
 5501 5402 6903
 5316 5739 6890
 5314 5313 6890
 6427 6140 6982
 6967 6519 7032
 6700 6892 7022
 6269 6023 6616
 7059 6616 7065
 5618 5497 6949
 6783 6751 7006
 5177 6876 6994
 5989 6736 7150
 5375 6951 7019
 5613 5513 6953
 6772 5486 7015
 6268 6917 6995
 6629 6348 6679
 6125 6612 7005
 6257 6773 6961
 6279 5712 6691
 5548 5547 6766
 6409 6128 7001
 5757 5759 6853
 6892 6169 7022
 6552 5024 6976
 5110 5126 6945
 6118 6762 6969
 6803 7048 7448
 5179 5150 6636
 5562 5583 6780
 6152 6649 6959
 5707 5709 7002
 5948 5980 6533
 7000 6770 7016
 5323 5255 6796
 5054 5272 6948
 6116 6222 7010
 5407 5410 6891
 6150 5405 6891
 5699 5697 6983
 5517 5536 6703
 6010 6953 7021
 6225 6768 7020
 5968 6086 7063
 5865 5956 7016
 6111 6175 6897
 6410 5543 6774
 6098 6096 6597
 5336 5334 7059
 5155 5178 6999
 6729 6730 7036
 6144 6436 6990
 7041 5879 7043
 6089 5881 6701
 6149 6682 7040
 6290 5746 6936
 6767 6739 7021
 6644 6725 6855
 6068 5844 7054
 6317 5812 6866
 6622 6074 7030
 117 116 6566
 6332 7041 7042
 5087 6967 7032
 6924 6896 7026
 6730 6731 7036
 6645 6644 6855
 6809 6955 7011
 5706 6503 7295
 6801 6729 7036
 6206 5978 6625
 7067 6150 7098
 6952 6010 7020
 5188 5177 6994
 6901 7096 7162
 6536 6275 7091
 6613 7379 7387
 5690 6969 6974
 5366 5367 6763
 5705 5447 6871
 6140 5806 6637
 5539 5561 7101
 5812 6865 6866
 6866 6125 7005
 5319 5271 6591
 6775 6985 7050
 6493 6252 7318
 6599 6264 7057
 6180 7022 7078
 5626 6143 6800
 6955 6147 7011
 5381 5383 6712
 119 5029 6575
 7037 6643 7038
 6345 6346 7039
 6153 5672 6922
 5683 6151 6902
 5409 5408 6902
 6140 6637 6982
 5244 5240 6680
 6580 6309 7281
 6286 6479 7366
 6170 5827 6646
 5607 5680 7028
 5171 6593 6636
 6994 6876 7049
 6029 5916 7023
 6024 5911 6996
 6357 7108 7163
 5334 5303 6926
 6643 6642 7100
 5999 6852 6964
 6242 6336 7075
 6414 6241 7075
 6842 6735 7014
 6138 5882 6795
 5399 5335 6608
 5739 5741 6783
 6211 6966 6981
 6394 6711 6992
 5297 6599 7057
 6175 6176 7185
 6774 5719 7044
 5980 6541 7347
 5158 5156 7027
 5736 6833 7051
 5248 5244 6681
 6148 6889 7052
 5568 5369 6869
 6109 6244 6910
 6479 6106 7366
 6194 6640 7090
 5914 6613 7387
 5885 5395 7128
 5393 5462 7128
 5744 5154 6927
 5149 5193 6927
 6158 6925 6997
 5065 5069 6937
 6507 6558 7190
 6735 6369 7014
 5979 6813 7060
 7051 6833 7083
 5627 5609 6745
 5905 6070 6642
 5898 5784 6642
 5743 6984 6997
 5305 5308 6598
 5424 5426 7080
 6725 6644 7037
 5787 6842 7014
 5461 5476 6697
 6879 6129 7003
 5679 5297 7057
 6020 5858 7389
 6877 6720 7009
 6296 6297 7072
 6092 6857 7087
 5244 6680 6681
 6134 6772 7015
 5257 5253 6777
 6438 6437 7142
 6612 6611 7005
 5090 5087 7032
 5946 5942 6668
 6596 5692 6963
 6458 6465 7306
 5245 5328 7053
 5261 5257 6778
 6279 6514 7280
 6309 6311 7281
 5670 5667 6837
 6798 5722 7045
 5459 5461 7029
 7309 6390 7337
 5298 5305 6599
 5116 6507 7190
 6050 6364 6420
 6123 6994 7049
 6678 6677 7083
 5714 6763 6808
 5786 6807 6991
 5067 5066 6940
 6258 6257 7056
 5844 6987 7054
 6382 6968 7395
 7183 7108 7287
 6335 6243 6950
 5458 5480 6743
 6011 6801 7036
 5896 6700 7022
 5357 5359 6951
 5591 5560 6818
 6962 6333 7033
 5703 6884 7081
 6332 6791 7041
 6167 5883 6653
 6290 6936 6998
 7056 5910 7067
 6489 6798 7045
 6876 6724 7049
 6539 6461 6540
 6986 5631 7055
 6032 6240 7102
 6989 6161 7071
 7062 6937 7110
 5573 5338 7065
 6461 6935 7127
 5305 6598 6599
 6259 6719 7058
 6199 6187 7004
 6498 5033 7443
 5185 6770 7089
 5461 6697 7029
 6698 6884 7029
 5550 5554 7104
 5722 5552 7104
 5257 6777 6778
 6147 6882 6974
 6185 6170 7017
 6940 6237 7140
 6908 6436 7258
 6882 5690 6974
 6373 7123 7167
 5853 6689 6690
 6928 6877 7009
 6803 6217 7048
 5414 5416 7119
 5776 5736 7051
 6960 5703 7081
 6618 5840 7025
 6117 5873 6756
 97 96 6577
 7004 5351 7154
 6390 6302 7337
 5172 6148 6867
 91 5051 6562
 5858 5750 7091
 5884 6536 7091
 6170 6646 7017
 5680 5600 7088
 7116 6905 7446
 6985 6133 7050
 7223 6471 7416
 6644 6643 7037
 6359 6290 6998
 6939 6159 7073
 6510 6756 7118
 5840 5841 6620
 6441 5121 7336
 5465 6645 6855
 6442 7070 7136
 5863 6939 7073
 5723 6628 7064
 5597 5717 6805
 7014 6375 7079
 5314 7006 7074
 5574 6712 6713
 6236 5181 6626
 6101 5861 6933
 7020 6010 7021
 6153 6922 6923
 6328 6514 7354
 6418 6480 7372
 6741 5979 7060
 5055 6499 6972
 6942 6148 7052
 5484 6775 7050
 6264 6265 7057
 5112 6946 7122
 6988 6134 7015
 6538 5854 7410
 6036 6281 6722
 6440 6114 6931
 5426 5428 7121
 6321 6738 7279
 5986 5988 6736
 6079 6231 6736
 6262 6986 7055
 6538 6208 7124
 5913 5914 7086
 6343 5999 6964
 5047 7062 7110
 6776 6123 7049
 5313 5316 6890
 6019 6351 7124
 6208 6018 7124
 5134 5183 6934
 5205 5128 6934
 7013 6425 7429
 6356 6357 7074
 6238 6485 7130
 6792 5913 7008
 6642 6070 7100
 6649 6648 7143
 6263 6262 7055
 6351 6486 7335
 6910 5693 7340
 5072 5070 6932
 6867 6148 6942
 6061 6059 6586
 5507 5508 7117
 6707 6268 6995
 6156 6815 7256
 5328 5249 7142
 6719 6718 7058
 6666 7092 7154
 6147 6974 7011
 7024 5350 7084
 6328 6515 7278
 6689 6131 6690
 5126 5205 6945
 6896 6380 7026
 6141 6875 7046
 6987 6260 7054
 6573 5043 6968
 5545 6782 7058
 5583 5652 6780
 7017 5723 7064
 6384 6188 7106
 6893 6943 7103
 6766 7172 7348
 6613 6191 7379
 7022 6169 7078
 6513 6153 6923
 6745 5609 7028
 5405 5407 6891
 6706 6162 7441
 6008 5517 6703
 6260 6261 7054
 5119 5097 7137
 6132 5968 7063
 6477 7215 7285
 6971 5204 7125
 5243 5247 7135
 91 92 6576
 6167 6653 6960
 5845 6595 7151
 6244 6111 6897
 6459 6461 6539
 5656 6793 6794
 5908 7037 7040
 6437 6098 6597
 6482 6483 7205
 6610 6167 6960
 6937 5113 7110
 6279 6691 7030
 5100 5114 7145
 6324 5102 7145
 5414 7119 7296
 6770 7000 7089
 6816 6843 7319
 6926 6269 7059
 6323 6942 7018
 6375 6478 7079
 6496 7132 7177
 6423 6089 6701
 6764 6633 6808
 6666 6166 7092
 5031 6570 7105
 5787 7014 7079
 6996 6158 6997
 5668 6502 7212
 5760 6800 7139
 6161 6250 7071
 5679 7057 7109
 6414 7206 7361
 5317 5843 7146
 6067 6389 7146
 6249 6189 7141
 5150 5171 6636
 6410 6774 7044
 6429 6431 7210
 5063 6937 7062
 5080 5081 7223
 6257 6961 7056
 6188 7046 7106
 5665 5654 6794
 6534 6199 7329
 6899 6946 7208
 6829 6830 7087
 6961 5910 7056
 6843 5808 7068
 6130 7013 7180
 5439 6494 7261
 6766 5586 7172
 5204 6614 7125
 5714 5366 6763
 6527 5037 7207
 6348 6629 7024
 6389 6589 6590
 6873 5903 7061
 5183 6928 7009
 6661 6660 7156
 6875 5786 7046
 5647 6122 6665
 5642 5644 6665
 6918 6827 7078
 6782 6259 7058
 6677 7051 7083
 5115 7032 7096
 5047 117 6566
 5696 6665 7164
 6455 6451 7116
 5574 5381 6712
 5688 6685 7339
 5197 5195 7175
 5713 6418 7171
 6494 6151 7331
 6014 6489 7341
 7113 5483 7194
 6425 6099 7181
 6102 6439 7181
 6506 5488 7202
 5334 6926 7059
 5408 5683 6902
 6833 6145 7083
 6344 6888 7099
 5609 5607 7028
 6764 5568 7090
 6563 6564 7133
 5355 5375 7132
 5640 5353 7132
 7060 6813 7171
 6739 5483 7113
 6965 6938 7166
 6550 6087 7451
 6284 7070 7214
 6984 6327 7097
 5840 6620 7025
 6540 6461 7127
 6241 6242 7075
 6889 5075 7052
 111 6516 7359
 6213 6386 7174
 118 119 6575
 5655 6604 7094
 6449 6458 7116
 6428 6427 7255
 5590 6883 7129
 6704 7050 7102
 5561 5593 7101
 6581 5601 6806
 6850 5721 7120
 6638 5885 7118
 6181 6268 6911
 6932 7018 7052
 5749 5859 7172
 7058 6718 7112
 6107 6109 6910
 6330 6239 7191
 5041 6435 7402
 5693 6394 7340
 123 124 5023
 7379 6191 7407
 5386 5533 7232
 5619 5777 7187
 6014 5789 7187
 5395 5393 7128
 5488 5475 7202
 5154 5149 6927
 6911 5582 7144
 6694 6695 7253
 5037 117 7207
 6583 5689 7247
 6305 6197 7362
 7057 6265 7109
 6590 5691 6592
 6269 6616 7059
 5784 5905 6642
 6228 6080 6582
 6081 6788 7228
 6256 5424 7080
 6531 5026 7211
 6246 6491 7248
 6863 5185 7089
 6846 5787 7079
 5123 5125 7201
 6435 6384 7294
 6404 6686 7245
 6314 7023 7080
 6886 5507 7131
 6474 6460 7155
 5724 5504 7206
 5523 5571 7206
 7110 5113 7111
 5301 6615 7213
 6297 6338 7072
 6884 6698 7081
 5471 5473 7204
 6347 6348 7084
 6570 6569 7105
 6620 6621 7092
 6302 6054 7351
 6590 6592 7146
 5071 5073 7240
 6377 6224 7194
 7038 6643 7100
 6744 6743 7069
 6830 6092 7087
 6200 6061 6520
 5949 6533 7329
 5026 100 7211
 101 5042 7211
 6081 5946 6668
 5989 7150 7241
 6533 6534 7329
 5354 5352 7245
 5538 5534 7193
 6784 5773 7163
 6452 6938 6965
 6247 6246 7093
 5138 5742 7205
 6998 5120 7192
 6914 6404 7245
 6788 6081 7066
 5670 7013 7429
 6743 5618 7069
 6944 6741 7192
 6543 5031 7162
 6678 7083 7131
 6763 6764 6808
 6346 6185 7064
 6708 5389 7232
 6230 6228 6535
 6991 6137 7106
 5742 6706 7441
 5124 5122 7219
 6814 6341 7303
 6675 6678 7217
 5079 5067 6940
 6531 7211 7226
 6616 6216 7149
 5910 6903 7067
 5786 6991 7046
 6505 6506 7350
 6575 7134 7273
 6750 6392 7157
 7147 5823 7195
 6883 6149 7129
 6348 7024 7084
 7103 6943 7170
 6169 6918 7078
 6009 5962 7220
 6530 6532 7114
 6215 6589 7203
 6139 6429 7210
 6166 7025 7092
 6133 6032 7102
 6515 6328 7354
 6519 5058 7096
 6891 5704 7098
 6718 6186 7112
 6793 6792 7008
 6205 7152 7153
 124 125 7107
 7081 6698 7082
 7046 6991 7106
 5980 7347 7437
 7025 6620 7092
 7099 6249 7364
 5552 5550 7104
 6997 6984 7097
 7102 6240 7176
 6185 7017 7064
 6571 5047 7110
 7120 5721 7269
 6610 7081 7082
 6845 5760 7169
 5698 5854 7244
 7015 6893 7103
 7354 6514 7450
 6655 5314 7074
 5416 5443 7119
 6789 5987 7228
 5985 6081 7228
 6551 5878 7268
 6510 6117 6756
 6695 6693 7412
 6265 6267 7109
 5053 88 6554
 87 5052 6554
 6244 6897 7213
 6705 5167 7188
 6441 6376 7137
 5028 113 7402
 6946 6899 7415
 5252 5250 7255
 7000 6195 7089
 6087 6548 7219
 6093 5876 7231
 7049 6724 7123
 5750 5884 7091
 6194 7090 7159
 6671 6674 7236
 5600 5599 7088
 5932 6639 7180
 6149 7040 7129
 6389 6590 7146
 6237 6289 7224
 6913 6194 7159
 6903 6150 7067
 5546 5684 7276
 7240 5073 7275
 5500 5502 7265
 7083 6145 7131
 7050 6133 7102
 6055 5950 7246
 6404 6312 6686
 7064 6628 7151
 6776 7049 7123
 5934 6491 7254
 7023 6256 7080
 6856 6318 7252
 6155 6156 7256
 6888 6249 7099
 6487 6352 7179
 6703 5763 7196
 5572 6285 6947
 5033 6498 7274
 7092 6621 7154
 5400 5500 7394
 6954 5866 7283
 6233 6784 7108
 5930 5793 6605
 92 91 6562
 7068 5808 7148
 6724 5180 7123
 7018 6942 7052
 6929 6944 7192
 5121 6977 7126
 5073 6473 7275
 6307 6308 6684
 5797 5974 7442
 6393 6138 7259
 6514 5996 7280
 5029 6563 7133
 6438 7142 7293
 5686 5597 6805
 6969 6762 7115
 6900 6901 7218
 6635 6005 7438
 6225 7020 7113
 5130 5124 7268
 5878 5756 7268
 5545 7058 7112
 5541 5515 6947
 5469 5471 7267
 5224 5226 7270
 6827 5823 7147
 6696 6694 7173
 5996 5824 7264
 5852 6052 7264
 6223 6279 7280
 6440 6931 7442
 5649 5779 6602
 5953 6444 6602
 6610 6960 7081
 6281 6280 7086
 7078 6827 7147
 5855 6328 7278
 6475 6837 7363
 6150 6891 7098
 5020 92 6562
 6251 6252 7274
 6517 5051 7325
 5205 6934 7160
 7032 6519 7096
 6988 7015 7103
 6332 7042 7230
 6075 6184 7298
 6574 6573 6968
 6623 5902 7227
 5258 5290 7293
 6221 6850 7120
 6183 6988 7103
 6122 6627 7203
 7011 6974 7115
 7037 7038 7040
 6214 6036 6722
 5582 6688 7144
 6214 6722 6723
 6062 6606 6607
 6225 7113 7194
 6663 6664 7199
 5428 5441 7121
 6560 5025 7311
 5075 6932 7052
 6993 5679 7109
 7079 6478 7148
 5988 6079 6736
 6501 6435 7294
 5815 5814 7290
 6338 6337 7286
 6840 6287 7320
 88 89 6553
 5241 7053 7384
 5628 5932 7324
 6288 6790 7101
 5704 5412 7296
 7074 6357 7163
 5943 6832 7210
 6595 6594 7262
 7069 5618 7286
 6736 6231 7150
 6359 7060 7171
 6018 6019 7124
 6974 6969 7115
 5128 5134 6934
 7096 5058 7162
 6810 7011 7115
 5880 5834 7315
 7119 6487 7296
 6250 6238 7130
 6658 5322 7229
 7112 6186 7173
 7019 6379 7177
 6561 6958 7250
 5199 5197 7309
 6382 6820 7241
 6231 6398 7333
 5356 5688 7339
 5023 124 7107
 6938 6462 7166
 7253 6695 7342
 5075 5072 6932
 6373 6776 7123
 5388 5706 7295
 6082 5385 7295
 5508 5516 7117
 5832 6053 7302
 5180 7027 7167
 5079 6940 7140
 6355 6354 7269
 6145 6886 7131
 5250 5246 7330
 5249 5254 7142
 6492 5652 7371
 6964 6852 7337
 7097 6327 7184
 6503 6319 7344
 6662 6661 7277
 108 109 7428
 6221 7120 7138
 6588 6214 6723
 6398 6576 7333
 6863 7089 7161
 5534 5530 7342
 6162 6163 7441
 6721 5795 7326
 6816 5804 7414
 6459 6539 7155
 6440 5974 7404
 6584 5166 7398
 5726 6717 7234
 5105 6324 7449
 5512 5520 7334
 6557 6507 7449
 5717 6799 7143
 6934 5183 7085
 6180 7078 7147
 6088 6826 7156
 6542 5021 7327
 6585 6584 7398
 6614 6853 7125
 6956 6210 7321
 110 111 7359
 6304 7147 7195
 6073 6515 7354
 6230 6535 6581
 7115 6762 7197
 118 6575 7207
 6106 6037 7366
 6846 7079 7148
 5166 5141 7398
 6944 5785 7258
 6787 6788 7066
 5125 5131 7352
 6556 6557 7311
 6275 6536 7388
 5351 6666 7154
 6371 6221 7138
 7205 6483 7352
 5777 6881 7238
 6734 5358 7339
 5629 5394 7353
 6234 6314 7189
 7047 6120 7423
 7020 7021 7113
 6203 6505 7350
 6070 6025 7350
 5631 6814 7303
 6851 5545 7112
 6013 6182 7343
 5247 5251 7421
 6649 7143 7266
 6334 6335 7390
 5376 5238 7384
 5097 5099 7137
 6183 7103 7170
 5936 5943 7406
 6065 6275 7388
 6628 5845 7151
 7089 6195 7161
 6714 6715 7316
 5670 6837 7013
 112 5028 7403
 6235 6296 7448
 6346 7064 7151
 5804 5632 7414
 6507 5107 7449
 5346 5243 7135
 6198 6090 7425
 5179 6636 7242
 6479 6286 7361
 6104 6107 7340
 7088 5599 7158
 5634 6843 7414
 7107 125 7136
 6421 6733 7254
 6272 6234 7189
 7111 5113 7240
 6270 6271 7222
 6220 6218 7144
 5399 6608 7285
 5102 5100 7145
 6862 6786 7413
 6289 6358 7305
 6610 7082 7196
 6354 7120 7269
 5601 6535 7426
 6499 5112 7122
 6423 6971 7125
 7172 6754 7348
 6186 6696 7173
 6738 6737 7288
 5854 5700 7410
 7065 6616 7149
 5035 91 6576
 6977 6710 7126
 6684 6308 6685
 6105 6417 7248
 6087 5117 7451
 5033 6972 7443
 7010 5717 7143
 6233 7108 7183
 6648 7010 7143
 6651 6009 7239
 6607 6606 7047
 6810 7115 7197
 6267 6387 7186
 6304 6180 7147
 5808 6846 7148
 6514 6279 7450
 6996 6997 7097
 6660 6663 7156
 5843 6067 7146
 6392 6299 7237
 6189 6477 7141
 6555 6315 7346
 6195 6274 7161
 6800 6143 7139
 6330 6831 7356
 6020 6513 7215
 6848 6178 7225
 6587 6062 6607
 6333 6331 7365
 7151 6595 7216
 6374 6368 7430
 6359 6998 7392
 6704 7102 7176
 6943 5559 7170
 6361 6363 7417
 6992 6659 7231
 5591 6818 7266
 5081 5084 7223
 7066 6672 7409
 7224 6289 7305
 6678 7117 7217
 5654 5656 6794
 5206 6212 7168
 6813 5713 7171
 5346 7135 7165
 6252 6253 7318
 6874 5662 7166
 6655 7074 7163
 6899 6898 7415
 6609 6610 7196
 6152 6959 7331
 6024 6996 7097
 6639 6130 7180
 6989 7071 7378
 6600 5684 7401
 5167 6624 7307
 5378 5569 7411
 7053 6749 7384
 5644 5647 6665
 6451 6449 7116
 125 5 7136
 5652 6492 7383
 5398 6750 7157
 7060 6359 7392
 6178 7003 7225
 6731 5346 7165
 6212 6391 7178
 5195 5206 7175
 6007 6347 7185
 6436 6278 7258
 6964 6302 7351
 5375 7019 7177
 5629 6481 7390
 7168 6212 7178
 5206 7168 7175
 6732 6325 7360
 5902 6863 7161
 6325 6845 7169
 6907 5878 7304
 6851 7112 7173
 7406 6532 7435
 6086 6372 7355
 6755 6124 7300
 6255 6771 7341
 6099 6102 7181
 114 5041 7402
 6088 7156 7408
 6454 6452 6965
 6377 7194 7267
 7021 6739 7113
 6367 6758 7374
 6191 6190 7427
 6895 6286 7366
 6636 6635 7242
 6887 5573 7436
 6024 7097 7184
 6454 6726 7077
 6760 6017 7237
 5599 6236 7158
 6521 5034 7250
 6405 6230 6581
 6175 7185 7375
 6765 6132 7373
 5867 5620 7299
 7005 6611 7292
 6432 6433 7270
 7085 6283 7160
 5747 6667 7367
 6366 6836 7435
 5353 5355 7132
 7119 5443 7244
 6946 6945 7208
 5053 6554 7209
 6869 5726 7159
 5568 6869 7090
 6698 6008 7082
 6548 6551 7219
 5854 6538 7335
 5351 7004 7330
 6904 6935 7446
 6978 6979 7323
 6193 6835 7429
 7193 6695 7412
 6674 6675 7217
 7004 6428 7330
 6132 6966 7373
 5763 6780 7313
 6785 6183 7170
 6335 6950 7279
 6934 7085 7160
 5506 6704 7176
 6339 6494 7331
 7061 5903 7252
 5516 5510 7338
 6802 6803 7271
 6271 6213 7174
 7109 6267 7186
 6327 6878 7184
 107 108 7243
 6604 7031 7094
 7138 6055 7246
 6993 7109 7186
 6607 5533 7233
 6520 6061 6586
 6200 6520 6583
 6240 6330 7182
 6901 7105 7218
 6236 6626 7278
 6472 6473 7416
 6370 6600 7401
 6417 6233 7183
 6433 6270 7222
 5693 6910 7376
 6272 7189 7257
 6205 6207 7152
 5058 6543 7162
 7040 7038 7129
 6218 6181 6911
 5866 5127 6525
 5586 5749 7172
 7156 6663 7408
 5323 6796 7444
 5573 7065 7149
 6239 6342 7191
 5021 107 7243
 6051 6323 7224
 6008 6703 7082
 5389 5386 7232
 5789 5619 7187
 5475 5590 7202
 6811 6810 7197
 6558 5032 7190
 6897 6175 7375
 6976 5024 7318
 5773 6655 7163
 6316 6500 7235
 6762 6957 7197
 6856 7252 7391
 6295 6293 7404
 6352 6353 7179
 6420 6316 7328
 6906 6405 7433
 7122 6946 7415
 6494 6301 7261
 6405 6906 7328
 6760 6759 7439
 7305 6358 7372
 5226 6619 7321
 5744 6927 7434
 6261 6521 7250
 5815 6537 7410
 5823 6300 7195
 117 118 7207
 7048 6407 7290
 7045 6255 7341
 6137 6501 7294
 6216 6024 7184
 7028 5680 7263
 7166 6462 7282
 5790 6906 7433
 6706 6705 7188
 5901 5123 7201
 5127 5111 6525
 6872 6396 7424
 7027 6651 7167
 5120 6929 7192
 6041 6303 7356
 6537 6538 7410
 5533 6607 7047
 6460 6459 7155
 7082 6703 7196
 6329 6441 7336
 5504 5523 7206
 7076 6454 7077
 5119 7137 7368
 6120 6350 7423
 6747 6746 7200
 6690 6321 7279
 6283 6921 7308
 5350 5301 7213
 5473 5506 7204
 5590 7129 7198
 7071 5817 7378
 6408 6403 7209
 6527 7273 7447
 7090 6869 7159
 6885 6068 7327
 6790 6789 7357
 5113 5071 7240
 6224 6225 7194
 6664 5716 7199
 6299 6760 7237
 5975 6979 7277
 7130 6485 7428
 6302 6964 7337
 7223 5084 7306
 6338 7286 7413
 5666 7094 7095
 6314 7121 7189
 7196 5763 7313
 6371 7246 7284
 6301 6416 7261
 5943 7114 7406
 7142 5254 7293
 7114 6532 7406
 6442 5952 7070
 6627 6215 7203
 5029 7133 7134
 5688 5354 7245
 7041 7043 7358
 6053 7178 7302
 5581 5538 7193
 5680 7039 7263
 5728 6848 7225
 7094 7031 7095
 5205 7160 7208
 7122 6498 7443
 5136 5138 7205
 6068 6958 7327
 6571 7110 7111
 7101 5593 7320
 100 101 7211
 6288 7101 7320
 7165 6198 7425
 6184 7158 7298
 6825 5975 7277
 7036 6731 7249
 6156 6993 7186
 6372 6373 7239
 6508 6281 7420
 6469 6572 7111
 7170 5559 7260
 7208 7160 7308
 6577 5033 7274
 7034 6760 7439
 6218 6911 7144
 6300 6981 7393
 5122 6087 7219
 6469 7240 7275
 5974 6528 7301
 6840 5601 7426
 6727 6272 7257
 5559 6755 7260
 5104 6900 7218
 6491 6105 7248
 7176 6240 7182
 5432 6857 7391
 6829 7087 7323
 6615 5693 7376
 6164 7256 7319
 7329 6199 7432
 7189 5441 7257
 6445 7076 7077
 6820 5989 7241
 7038 7100 7198
 6162 6706 7374
 5962 6304 7220
 6874 7166 7282
 6469 7111 7240
 6659 6658 7229
 6609 7196 7313
 6331 6332 7230
 5917 7048 7290
 6340 6959 7251
 6316 6405 7328
 7012 6340 7251
 6759 6371 7284
 6124 6872 7300
 6462 6463 7282
 7004 7154 7432
 6990 6436 7368
 6785 7170 7260
 6413 6220 7297
 7063 6300 7393
 7348 6434 7431
 7293 5290 7396
 6572 6571 7111
 6343 6964 7351
 6378 6533 7437
 6832 6139 7210
 5590 7198 7202
 6353 7098 7179
 6294 6295 7134
 6624 6623 7227
 6712 6082 7370
 6396 6103 7424
 5443 5698 7244
 7007 6954 7283
 6789 7228 7357
 6285 6284 7343
 5987 5985 7228
 7129 7038 7198
 6411 6343 7400
 6853 5838 7272
 7003 6409 7225
 6017 6847 7237
 5084 6905 7306
 6881 6146 7238
 6631 7026 7407
 6717 6714 7234
 6673 6671 7236
 5554 7348 7431
 6535 6228 6582
 5322 5252 7255
 7087 6823 7323
 6485 6484 7243
 6062 6033 6606
 7313 6780 7383
 5876 6104 7231
 7200 6746 7263
 6326 6101 7360
 5605 6802 7271
 6341 6421 7303
 7282 6463 7363
 88 87 6554
 5589 5546 7276
 6176 6913 7316
 7188 6367 7374
 6665 6122 7164
 5502 5724 7265
 5398 7157 7419
 5589 7276 7322
 5950 6038 7246
 6626 5855 7278
 5529 6851 7253
 5034 6561 7250
 6312 6310 6686
 5028 7317 7403
 6399 6192 7221
 7218 6569 7314
 6749 6748 7349
 5441 6728 7257
 5515 5572 6947
 6164 6155 7256
 6878 6879 7291
 7121 5441 7189
 7143 6799 7266
 6811 7197 7289
 6733 5934 7254
 7197 6957 7289
 6033 6605 6606
 6274 6367 7307
 5689 6400 7247
 6248 6785 7260
 7039 6346 7216
 7204 5506 7310
 5903 6915 7252
 6371 7138 7246
 6344 7099 7419
 5721 5867 7269
 5290 7221 7396
 6578 5030 7381
 6033 5930 6605
 7105 6569 7218
 6516 111 7403
 6594 5376 7262
 6894 5439 7261
 6310 6684 6686
 6906 6050 7328
 7213 6615 7376
 6748 6747 7349
 6310 6307 6684
 5785 6908 7258
 5620 5639 7299
 7033 5331 7222
 6502 6204 7297
 5652 6518 7371
 6335 7288 7390
 6970 5114 7385
 5901 7201 7362
 6473 6468 7275
 6279 7030 7450
 6950 6690 7279
 5756 5130 7268
 6346 7151 7216
 6752 6291 7322
 5104 7218 7314
 5483 5469 7267
 6945 5205 7208
 6363 7292 7417
 6866 7005 7369
 6513 6923 7215
 5728 7225 7380
 5231 5224 7270
 6254 7122 7415
 6402 7007 7283
 7137 6376 7368
 5824 5852 7264
 6480 6223 7280
 6471 6472 7416
 6422 6423 7272
 5725 6874 7282
 6787 7066 7409
 5036 7130 7428
 6727 7257 7332
 5779 5953 6602
 7246 6038 7284
 5136 7205 7352
 6296 7072 7271
 5330 6681 7365
 7183 5867 7299
 6857 6856 7391
 7173 6694 7253
 6979 6662 7277
 6372 7220 7355
 6415 6402 7283
 7012 5581 7412
 6498 6251 7274
 6746 7028 7263
 6533 5980 7437
 6306 6200 6583
 6011 7036 7249
 6308 6306 7247
 6343 7351 7400
 7184 6878 7291
 6515 6075 7298
 7194 5483 7267
 7072 5605 7271
 5529 7253 7342
 5254 5258 7293
 6245 6609 7313
 6306 6583 7247
 6423 7125 7272
 7125 6853 7272
 7191 6342 7378
 7117 5516 7217
 7068 6164 7319
 6038 6202 7284
 6923 5399 7285
 6474 7155 7324
 6138 6795 7259
 7225 6409 7380
 6468 6469 7275
 6905 6904 7446
 7099 6657 7419
 6051 7224 7305
 6899 7208 7308
 6303 7182 7356
 5725 7282 7363
 5814 5917 7290
 7098 5704 7179
 6357 6355 7287
 6011 7249 7326
 6611 5166 7292
 7247 6400 7377
 7178 6391 7302
 5762 5628 7324
 6859 6329 7336
 6569 6568 7314
 6799 5591 7266
 6199 7004 7432
 5412 5414 7296
 7133 6294 7134
 6287 6288 7320
 7215 6923 7285
 6424 6727 7332
 6956 5826 7373
 6275 6513 7389
 5510 5512 7338
 6957 6779 7289
 6966 6956 7373
 7236 5516 7338
 6927 6412 7434
 6216 7184 7291
 7272 5838 7418
 6959 6649 7399
 5030 88 6553
 6831 6041 7356
 6947 6285 7401
 6253 6907 7304
 6035 5880 7315
 7202 7198 7312
 6489 7045 7341
 6292 6516 7317
 5621 5199 7309
 6518 6277 7371
 5358 5356 7339
 6966 6132 7393
 6595 7200 7216
 5025 6556 7311
 6754 6434 7348
 6210 6880 7321
 7140 6237 7224
 7093 6246 7248
 7257 6728 7332
 6323 7140 7224
 5385 5388 7295
 6933 5589 7322
 5024 6493 7318
 6373 7167 7239
 6737 5629 7288
 6052 6051 7305
 5834 5832 7302
 6621 5949 7329
 6384 7106 7294
 5246 5351 7330
 7043 6811 7289
 5027 6574 7333
 5795 6011 7326
 6528 6527 7447
 6315 6229 7235
 6864 5104 7314
 6319 6320 7344
 6308 7247 7377
 7334 5531 7409
 5618 6949 7286
 6035 7315 7345
 5593 6840 7320
 6500 5030 6553
 5530 5529 7342
 6541 6496 7347
 6499 7122 7443
 6245 7313 7383
 5621 7309 7337
 7301 6295 7404
 6291 6933 7322
 6463 6475 7363
 6728 5747 7332
 6958 6542 7327
 7316 6715 7445
 7266 6818 7399
 7124 6351 7335
 5520 5531 7334
 6968 5043 7395
 6363 6035 7345
 6151 6152 7331
 7252 6915 7391
 6713 6712 7370
 6771 6014 7341
 6422 7272 7418
 7176 7182 7310
 6852 5621 7337
 7185 6347 7375
 6823 6978 7323
 6536 6920 7388
 5051 6524 7325
 6286 6414 7361
 6052 7305 7372
 6731 7165 7425
 7155 5762 7324
 6074 6073 7354
 6132 7063 7393
 7169 6326 7360
 7100 6070 7312
 6788 5540 7357
 7167 6651 7239
 5554 6766 7348
 5043 6504 7395
 5131 5136 7352
 6054 6641 7351
 7055 5631 7303
 5036 110 7359
 7106 6137 7294
 5384 5382 7233
 6851 7173 7253
 5394 5396 7353
 6025 6203 7350
 6393 7259 7386
 6220 7212 7297
 6103 6248 7424
 5571 6479 7361
 6710 5901 7362
 6317 6866 7369
 6249 7141 7364
 6492 6245 7383
 7314 6568 7385
 7042 7041 7358
 7214 6013 7343
 5838 5997 7418
 6843 7068 7319
 6380 6349 7379
 6837 5725 7363
 6481 6334 7390
 7228 6788 7357
 7158 6236 7298
 6349 6508 7387
 5238 5241 7384
 6037 6895 7366
 7286 6949 7413
 7347 6379 7437
 6949 6862 7413
 7091 6275 7389
 7379 6349 7387
 6839 5728 7380
 6667 6121 7367
 6864 7314 7385
 5166 6584 7417
 5396 5400 7394
 7232 5533 7423
 6998 7192 7392
 6066 6065 7388
 7126 6859 7336
 6657 5398 7419
 6293 6440 7404
 5114 6864 7385
 5141 5139 7398
 5531 6787 7409
 6758 6162 7374
 5935 5936 7406
 6910 6244 7376
 7108 6357 7287
 5826 6765 7373
 6439 6438 7396
 5700 5815 7410
 5858 7091 7389
 7190 6550 7451
 5533 5384 7233
 113 114 7402
 111 112 7403
 5382 5378 7411
 6915 5432 7391
 5632 5634 7414
 6835 5670 7429
 6368 6419 7430
 6190 6399 7427
 6898 6254 7415
 6693 7012 7412
 6780 5652 7383
 6400 6734 7377
 6090 6276 7425
 6229 6316 7235
 6005 6687 7438
 5251 5323 7421
 6395 6388 7397
 6568 6970 7385
 109 5036 7428
 6143 5797 7442
 6376 6990 7368
 6434 6406 7431
 5694 6656 7364
 6385 6374 7444
 6163 6482 7441
 6379 6378 7437
 6030 6235 7448
 5117 5116 7451
 5107 5105 7449
 5935 7406 7435
 7104 5554 7431
 6386 6721 7440
 5943 7210 7405
 6870 6088 7408
 7001 6839 7380
 7063 6086 7422
 6935 6455 7446
 6921 6422 7418
 6836 5935 7435
 5121 7126 7336
 6322 6975 7440
 5042 6565 7382
 6538 7124 7335
 6641 5744 7400
 7212 6502 7297
 6074 7354 7450
 6300 7063 7422
 6050 6420 7328
 7353 5396 7394
 6420 6364 7381
 7226 5042 7382
 7227 6274 7307
 7149 6216 7291
 6409 7001 7380
 6975 6386 7440
 6107 6910 7340
 6342 6989 7378
 6806 5790 7433
 6981 6966 7393
 6747 7262 7349
 6380 7379 7407
 6584 6361 7417
 5116 7190 7451
 7182 6303 7310
 7198 7100 7312
 7230 5330 7365
 7086 5914 7420
 7127 5179 7242
 6913 7234 7316
 6741 7060 7392
 6304 7195 7355
 6506 7202 7312
 6244 7213 7376
 6663 7199 7408
 5506 7176 7310
 7160 6283 7308
 6417 7183 7299
 6540 7127 7242
 6500 6553 7346
 7030 6074 7450
 7251 6959 7399
 6438 7293 7396
 7351 6641 7400
 7177 6379 7347
 7026 6380 7407
 6202 7034 7439
 6972 6499 7443
 6685 6308 7377
 7221 6439 7396
 6496 7177 7347
 6281 7086 7420
 6315 7235 7346
 6624 7227 7307
 6347 7084 7375
 6818 7251 7399
 5997 6921 7418
 6325 7169 7360
 6250 7130 7386
 7141 5694 7364
 6706 7188 7374
 7182 6330 7356
 7195 6300 7422
 7114 5943 7405
 5581 7193 7412
 6406 7104 7431
 6082 7344 7370
 6284 7214 7343
 5696 7164 7397
 7234 6714 7316
 6649 7266 7399
 6621 7329 7432
 6759 7284 7439
 7355 7195 7422
 6673 7236 7338
 7134 6295 7273
 7192 6741 7392
 7291 6879 7436
 6920 6066 7388
 7262 5376 7349
 7220 6304 7355
 7301 6528 7447
 7210 6431 7405
 6405 6581 7433
 6285 6370 7401
 6295 7301 7447
 6331 7230 7365
 5573 7149 7436
 7199 6870 7408
 7154 6621 7432
 6535 6582 7426
 7273 6295 7447
 7149 7291 7436
 7259 6250 7386
 6176 7316 7445
 5974 7301 7404
 7345 6317 7369
 7185 6176 7445
 6248 7300 7424
 6086 7355 7422
 7284 6202 7439
 7344 6320 7370
 7288 5629 7390
 7317 6516 7403
 6363 7345 7369
 7292 5166 7417
 5914 7387 7420
 7235 6500 7346
 7300 6872 7424
 7164 6395 7397
 6350 7232 7423
 7387 6508 7420
 5533 7047 7423
 6581 6806 7433
 6419 7421 7430
 7421 5323 7430
 6364 6578 7381
 5052 6579 6580
 6443 6442 6446
 6579 6578 6909
 8 7483 9221
 8779 8949 9658
 8206 8836 9279
 8136 8983 9619
 9017 8768 9579
 8386 9079 9080
 8842 8542 9737
 8983 8810 9619
 9158 8758 9265
 8982 8779 9658
 8086 8832 8906
 8680 9051 9566
 8542 8842 9341
 8851 7690 9709
 7679 8949 8955
 9566 9052 9718
 9063 9566 9718
 8701 8700 8907
 8517 9130 9339
 9109 9108 9323
 9475 8899 9702
 7632 7630 9061
 7679 8955 8987
 9130 8770 9339
 7690 8851 9504
 9072 9099 9784
 8832 8086 8973
 8551 9218 9527
 8937 8992 9291
 8660 8706 8796
 8635 8636 9394
 9060 7668 9061
 8928 8476 9727
 8926 8637 8927
 8969 8957 9614
 9563 9014 9811
 9441 8661 9565
 8684 8711 9385
 8756 8901 8925
 8880 8518 9710
 8836 8912 9279
 7739 8915 8917
 7653 8873 9071
 8787 8968 9361
 9323 9108 9731
 9493 8411 9626
 9099 9072 9470
 8738 8900 9511
 8411 9493 9782
 9250 9253 9328
 8768 9017 9681
 8942 8551 9527
 8973 8503 9324
 8974 7668 9060
 7725 8964 9363
 8873 7653 9577
 8882 8283 8959
 8773 9354 9491
 8821 8928 9727
 8996 8200 9648
 9593 9307 9705
 7786 9158 9265
 8368 8542 9341
 8996 9648 9752
 9006 8847 9582
 9308 9307 9593
 8645 9628 9811
 8286 8864 9511
 8907 8700 9626
 7461 8960 8962
 8839 7457 9016
 8645 8829 9628
 7689 9590 9714
 8986 8712 9054
 9237 8648 9594
 8966 8740 9437
 9079 8386 9589
 8976 7457 9546
 8637 8926 8958
 9171 8682 9843
 7457 8976 9713
 8542 9340 9737
 8862 8337 8977
 8097 8943 9853
 8764 8455 8923
 8891 7484 8971
 7731 7732 8921
 9268 8729 9809
 8706 8660 9000
 160 159 7491
 8886 8227 8888
 8864 8286 9783
 7804 9338 9339
 9385 8711 9767
 9354 8773 9712
 7746 7731 8921
 7 9475 9702
 9514 9022 9771
 8550 9543 9765
 9565 8661 9585
 8943 8097 9826
 8567 8684 9162
 8713 9488 9584
 8337 8862 9615
 8983 8880 9710
 7482 9014 9563
 8136 8880 8983
 8968 8787 9772
 8925 8901 9641
 9317 8874 9821
 8376 8905 9249
 8931 8914 9009
 7668 7632 9061
 7804 9265 9338
 7739 8917 9219
 9590 8858 9714
 8756 8614 8955
 9051 9052 9566
 7457 8839 9546
 8202 8966 9437
 8914 7476 9009
 9435 8680 9566
 8551 9040 9218
 8864 8738 9511
 9434 8802 9656
 8856 8507 9765
 8923 8455 8947
 7486 7474 7489
 8962 8963 9439
 8897 8896 8946
 8963 9438 9439
 9554 8975 9808
 8978 9032 9688
 9162 8684 9703
 8636 9175 9394
 8896 8945 8946
 9014 8645 9811
 9032 8978 9761
 9058 7981 9821
 8975 9334 9808
 7981 9058 9651
 7458 9017 9579
 7493 8878 8926
 8992 8269 9291
 8943 8944 9853
 8964 8767 9363
 9606 7494 9734
 7630 7759 9061
 9549 8581 9579
 8507 8856 9851
 8535 8536 8929
 9543 8828 9765
 7467 9006 9582
 8373 8948 9313
 9593 7860 9751
 9249 8905 9251
 8283 8178 8959
 9282 9586 9604
 8663 9544 9567
 7469 8931 9009
 8682 9171 9173
 8853 8851 9709
 8189 8986 9054
 8902 8577 9575
 8541 8897 8946
 8969 9614 9631
 7489 7474 7490
 9586 9245 9604
 8810 9311 9619
 8641 8977 8978
 9015 8674 9610
 8465 8892 9497
 7584 9622 9709
 8837 8806 9010
 9619 9311 9820
 9232 8714 9786
 9172 9171 9843
 8832 8973 9324
 8877 9514 9771
 7877 9046 9727
 9462 8523 9538
 8423 9666 9696
 8960 8961 8962
 7826 9047 9689
 9253 7997 9328
 8701 8907 8908
 8875 8874 9317
 8713 8503 8973
 9047 7826 9756
 7981 9317 9821
 8890 7453 9638
 8756 8955 9677
 8923 8713 9584
 8729 9268 9534
 8604 9494 9808
 8577 8902 9288
 8851 8852 9504
 8918 7459 9011
 9140 8633 9141
 8682 9173 9608
 9273 8841 9462
 8957 8969 9672
 8648 9237 9742
 8927 9606 9734
 8872 7453 9695
 8774 8943 9826
 8880 8136 9759
 9060 9061 9706
 161 7474 7486
 8714 9232 9633
 9269 9268 9809
 8881 8635 9394
 7453 8872 9774
 8931 7469 8933
 8966 9670 9736
 9308 9593 9751
 8895 9002 9358
 8648 9551 9594
 8912 8248 9279
 8660 8796 9793
 9040 8214 9218
 9470 9072 9706
 9203 7721 9856
 7492 9369 9679
 7721 9729 9856
 9250 9328 9818
 9388 9675 9733
 9072 8781 9706
 8828 8856 9765
 8490 9434 9656
 8841 9273 9728
 7832 7834 8984
 9670 8080 9736
 8342 8381 8961
 8473 9441 9565
 8781 9060 9706
 7474 160 7491
 9600 9411 9757
 9119 8855 9646
 8386 9080 9667
 8534 8532 9012
 9265 8758 9338
 8897 8541 8960
 9173 8823 9608
 9666 9319 9696
 8937 9291 9812
 9622 8853 9709
 8545 8940 8947
 7491 159 9836
 8964 7725 9602
 8659 9659 9809
 9099 7678 9784
 9623 8242 9656
 8956 7465 9024
 8929 8536 8930
 7458 8883 9535
 8991 8193 9110
 9586 9282 9603
 8855 7678 9646
 8836 8206 9813
 8872 8674 9015
 8862 8809 9615
 8768 9549 9579
 8882 8959 9650
 8855 9119 9817
 7464 8894 9002
 8970 7691 9456
 7476 8914 9010
 7710 8873 9577
 7671 7674 9087
 8777 9568 9754
 8773 8771 9487
 9028 8619 9397
 8894 7464 8997
 8604 9383 9494
 8878 7493 9679
 8697 8939 9490
 9282 9437 9603
 9002 8894 9358
 8227 8886 9342
 8032 8879 9718
 9659 9269 9809
 9554 7636 9654
 8944 8059 9853
 8892 8465 9540
 8689 9472 9820
 8368 9341 9392
 7678 8855 9784
 7459 8918 9012
 8806 8918 9010
 9456 7691 9856
 8059 8944 9796
 8666 8919 9698
 8873 7710 9740
 8209 9340 9744
 156 157 8952
 7612 7591 9066
 8965 9623 9656
 9615 8809 9786
 8712 8986 9618
 9046 8821 9727
 8816 9565 9585
 8751 9462 9538
 8681 9247 9559
 8784 9275 9840
 8888 8227 8981
 9340 8209 9737
 9477 9295 9478
 8248 8912 9520
 9663 9184 9697
 9313 8948 9859
 9275 8784 9668
 9675 8930 9733
 8883 7458 9579
 8935 9021 9384
 144 9528 9638
 9544 8924 9567
 8893 8677 9755
 9095 8618 9687
 8933 7469 8952
 8156 8155 8981
 8677 8893 9742
 8814 8890 9638
 8988 9240 9733
 8914 8837 9010
 7834 8034 8984
 8086 7882 9488
 9012 8690 9499
 7657 9715 9738
 8971 7484 9792
 7470 149 8980
 7669 9574 9611
 8960 7461 9367
 9369 7492 9768
 9472 8689 9595
 8598 8898 9730
 8381 8515 8961
 9139 9141 9142
 7484 8891 9771
 7461 8962 9439
 7481 9015 9610
 9201 9569 9578
 9139 9140 9141
 7498 7462 7499
 9252 7997 9253
 8940 8669 8947
 8307 8545 8947
 8951 8275 9782
 8618 9095 9790
 7780 9560 9583
 8532 8690 9012
 8905 8376 9539
 8669 8923 8947
 8455 8307 8947
 8879 8032 9802
 9334 8604 9808
 8898 8598 9773
 8988 8263 9240
 8803 8802 9434
 8685 8663 9567
 8783 9492 9534
 8900 8738 9779
 9086 7670 9087
 8508 9020 9177
 8159 8156 8981
 8910 8908 9239
 8903 8902 9575
 9109 9323 9580
 9568 8703 9754
 9010 8918 9011
 7493 8926 8927
 8535 8929 9724
 8840 8991 9110
 8696 9697 9801
 9487 8771 9850
 149 150 8980
 8920 9600 9757
 8541 8342 8961
 9046 7877 9689
 9044 7711 9300
 7469 156 8952
 9058 9059 9321
 8918 8534 9012
 7674 7743 9087
 8956 9024 9806
 8920 8498 9600
 9247 7730 9559
 9715 9466 9738
 8940 8545 9393
 8889 8996 9825
 7497 7517 9373
 162 161 7486
 8087 8098 9050
 8901 8756 9677
 7517 8537 9373
 7483 9022 9514
 7670 9086 9858
 8633 9140 9861
 8927 8637 9606
 7670 7671 9087
 8690 8980 9499
 8421 8619 9028
 8681 9435 9647
 7723 9680 9763
 7847 8122 9143
 7718 7612 9066
 8581 8883 9579
 9676 7478 9743
 7472 9438 9674
 8919 8666 9721
 8555 8696 9801
 8977 8641 9787
 134 7466 7497
 8979 7470 8980
 8973 8086 9488
 7591 7593 9066
 7453 8890 9695
 9045 9044 9300
 8691 9468 9731
 8696 9663 9697
 9335 8588 9770
 8764 8923 9584
 8699 9686 9693
 8897 8960 9367
 8906 8566 9749
 9295 9477 9791
 8975 9554 9654
 9245 9273 9604
 8939 8697 9573
 8318 8881 9819
 128 127 9002
 9050 8098 9051
 8841 8523 9462
 9058 9321 9651
 8271 8842 9206
 8917 8916 9562
 7713 7711 9044
 9249 9251 9252
 9673 8593 9735
 8275 8411 9782
 8935 8952 9021
 152 153 9011
 8681 8680 9435
 7489 7490 7493
 7490 7474 7491
 7810 8444 9122
 8031 8011 9053
 9021 7460 9384
 7822 7877 9149
 7691 9203 9856
 8701 8908 8909
 8498 8954 9600
 9263 9025 9391
 8086 8906 9749
 8822 8714 9633
 8881 8318 9780
 8261 8131 9392
 7574 7572 9104
 9528 8814 9638
 7919 7922 9093
 8915 7739 9515
 9361 8968 9631
 7452 8645 9014
 7497 7466 7517
 8879 9063 9718
 8326 8328 9208
 8182 9036 9441
 8269 8992 8994
 7832 8984 9642
 8289 8667 9260
 9027 9607 9739
 8921 7732 9587
 7728 9219 9855
 8660 8382 9000
 9311 8689 9820
 8948 8373 9508
 8786 9335 9770
 8302 9028 9397
 9488 7887 9584
 8996 8871 9825
 8200 8996 9797
 8930 8988 9733
 7668 8974 9654
 9393 8545 9536
 7496 133 7497
 8193 8991 9571
 133 134 7497
 8520 8219 9127
 8130 8087 9050
 8011 8032 9053
 8972 8537 9423
 8518 9130 9710
 9686 8807 9693
 137 7456 9008
 8924 8260 9567
 9437 8740 9603
 8538 8715 9342
 9249 9252 9253
 9051 8098 9052
 8077 8938 9759
 9591 8174 9669
 7844 7847 9143
 9680 8835 9763
 127 7464 9002
 9122 8444 9123
 8952 157 9021
 9560 8909 9583
 9036 8552 9441
 8473 8182 9441
 8930 8536 8988
 8938 8077 9788
 8122 9139 9143
 151 7465 9003
 7922 8311 9093
 8564 8670 9001
 7805 7810 9122
 153 7475 8967
 8131 8368 9392
 9369 8878 9679
 7798 8552 9036
 9574 8987 9611
 9726 8759 9753
 8420 9233 9393
 132 133 7496
 8348 9118 9125
 7629 9045 9300
 153 7476 9011
 8955 8614 8987
 8895 128 9002
 9202 9201 9578
 8684 9385 9703
 7577 7574 9104
 9338 8517 9339
 7459 152 9011
 9492 8729 9534
 7882 7887 9488
 7820 7822 9149
 7499 7462 7500
 8967 7475 8968
 8641 8978 9688
 8213 9025 9263
 8537 8972 9373
 8809 9232 9786
 8977 8337 8978
 8799 9089 9629
 8566 8906 9803
 8974 8975 9654
 131 132 7452
 8329 8326 9208
 8457 9161 9162
 9316 8582 9356
 8782 9301 9407
 9048 8904 9059
 7735 7716 9043
 7496 7497 9373
 7915 7917 9092
 7452 132 7496
 136 137 9008
 9292 8248 9520
 7942 9124 9409
 8985 8592 8998
 9193 9572 9625
 9104 7572 9144
 7997 9252 9632
 8811 9676 9743
 152 151 9003
 9113 7795 9285
 7498 7491 9836
 9693 8807 9722
 8763 9393 9536
 8498 8920 9816
 9435 8765 9647
 8961 8515 8962
 8375 9684 9690
 8330 8827 9280
 7490 7491 7492
 7983 9207 9266
 8825 9673 9735
 7800 7795 9113
 8909 8908 8910
 8527 8904 9048
 8138 9432 9442
 8457 8304 9161
 8225 8348 9125
 8759 9815 9843
 154 153 8967
 7809 7807 9121
 9438 8963 9674
 8875 9317 9433
 7689 9079 9590
 8910 9239 9835
 8199 8153 9204
 7759 7627 9100
 7917 7919 9093
 7517 7466 7763
 8819 8922 9837
 8556 7676 9541
 8822 9633 9816
 8098 8031 9053
 9139 9142 9143
 8537 9422 9423
 8972 9423 9424
 9019 7471 9020
 8587 9075 9389
 8452 7926 9115
 131 7452 9014
 7746 8921 9750
 9233 8940 9393
 7706 7703 9134
 7942 7945 9124
 7995 7875 9284
 8218 8582 9316
 8700 9493 9626
 8719 9159 9478
 7913 7912 9106
 8723 9113 9285
 8807 8808 9722
 8949 7679 9658
 8250 7906 9348
 9468 8691 9773
 7876 8124 9153
 7605 7603 9032
 8286 9511 9635
 8594 8292 9349
 8782 8146 9301
 7757 7707 9056
 7499 7500 7501
 8968 7475 8969
 9397 8619 9398
 8965 8786 9623
 9349 8204 9419
 9690 8838 9741
 141 7471 9019
 8118 8116 9190
 9076 8417 9371
 8260 8924 9865
 7710 8941 9740
 7875 7880 9284
 8980 150 9499
 8520 9127 9385
 7468 8869 9366
 7473 8897 9367
 7912 8610 9106
 8763 8420 9393
 7982 7983 9266
 9092 7917 9093
 8560 9030 9400
 8293 8527 9048
 7881 7876 9153
 8962 8515 8963
 7492 7491 7498
 8275 8951 9704
 7517 7763 7764
 8560 7682 9030
 8673 8948 9299
 7894 8196 9328
 8274 8118 9190
 9155 7956 9289
 8563 8085 9351
 8893 8648 9742
 8883 8884 9535
 7555 7559 9069
 7703 7708 9134
 7730 7616 9026
 8989 8608 9429
 8281 8107 9184
 7499 7501 7502
 9547 8526 9605
 8594 9349 9419
 7866 8566 9074
 8445 8724 9081
 8727 9374 9448
 7958 7959 9192
 8587 7712 9075
 8270 8728 9151
 7764 7763 7765
 7517 7764 8537
 9194 8001 9377
 7502 7501 7503
 7764 7765 7766
 7502 7503 7504
 7766 7765 7767
 7764 7766 9422
 7504 7503 7505
 7767 7765 8607
 7766 7767 7768
 7505 7503 7507
 7504 7505 7506
 8452 9115 9444
 7768 7767 7769
 7505 7507 7508
 7504 7506 8494
 7768 7769 7770
 8494 7506 8495
 7508 7507 7509
 7768 7770 7771
 7770 7769 8142
 8494 8495 8509
 7508 7509 8767
 7509 7507 7510
 7771 7770 7772
 8142 7769 8241
 8509 8495 8510
 8494 8509 8878
 7509 7510 7511
 7510 7507 9365
 7771 7772 7773
 8142 8241 8390
 8878 8509 8926
 8510 8495 8511
 7511 7510 7512
 8494 8878 9369
 8390 8241 8403
 8142 8390 9362
 7771 7773 8205
 7773 7772 7774
 8510 8511 8526
 7512 7510 8608
 7511 7512 7513
 8511 8495 8901
 7771 8205 9364
 8205 7773 8266
 8390 8403 8549
 8403 8241 8471
 7774 7772 7775
 7773 7774 9360
 7756 8501 8530
 7756 8530 8564
 8526 8511 8646
 7511 7513 7514
 7512 8608 8787
 7519 7521 7522
 7519 7520 7521
 7537 7538 7539
 8383 8660 8755
 8530 8501 8894
 7514 7516 7725
 7514 7515 7516
 7522 7521 7523
 8437 8290 8481
 7607 7605 7608
 7539 7538 7540
 7537 7539 7680
 8205 8266 8267
 8403 8471 8472
 8390 8549 8775
 7774 7775 7777
 8526 8646 8779
 7534 7536 7537
 8437 8481 8482
 7522 7523 7676
 8539 8540 8865
 8416 8309 8430
 8482 8481 8797
 8564 8530 8565
 8383 8382 8660
 7607 7608 7610
 7534 7537 9033
 8664 8665 8678
 7537 7536 7538
 7464 126 9005
 8664 8622 8665
 8915 8565 8916
 7516 7518 7519
 7514 7513 7515
 7660 7658 8451
 8482 8797 8798
 7516 7519 9031
 7555 7556 7557
 8380 8341 8655
 8539 8538 8540
 7557 7556 7558
 7516 7515 7518
 8300 8547 8548
 7546 7548 7549
 7523 7521 7524
 8300 8301 8547
 8603 8622 8664
 8787 8608 8989
 7686 7687 7688
 127 126 7464
 8548 8547 8551
 7688 7687 7692
 8678 8665 8679
 8915 8916 8917
 8053 8120 8699
 8916 8565 8997
 7549 7548 7550
 8564 8565 8670
 8670 8565 8915
 7573 7572 7574
 8797 8481 8800
 7522 7676 8556
 7555 7557 7559
 8678 8679 8707
 8582 8336 8583
 8482 8798 8799
 8603 8621 8622
 8585 8583 8821
 8293 8292 8527
 7523 7524 7525
 8205 8267 8736
 7680 7539 7681
 8584 8583 8585
 8267 8266 8353
 8303 8229 8588
 7540 7538 7541
 7519 7518 7520
 8472 8471 8676
 8775 8549 8951
 7774 7777 7779
 7549 7550 7551
 7777 7775 7793
 8779 8646 8949
 8514 8401 9063
 8538 8363 8715
 7570 7572 7573
 8479 8443 8614
 7686 7688 7761
 8133 8132 8489
 8865 8540 8866
 8539 8865 8899
 8799 8798 8876
 7693 7694 7695
 8737 8387 8738
 7540 7542 7543
 7610 7696 8480
 8599 8600 8601
 7697 7695 7776
 151 150 7465
 7610 7608 7696
 8524 8460 8778
 8707 8679 8792
 7778 8434 8435
 8487 8488 8807
 7778 7704 8434
 7695 7694 7698
 8179 8286 8815
 7693 7695 7697
 7528 7530 8557
 8807 8488 8808
 7575 7576 7689
 7558 7556 7565
 8400 8401 8514
 7559 7557 7560
 7515 7513 8413
 7549 7551 7726
 8626 8624 8627
 7562 7560 7685
 7543 7542 7544
 7754 7760 8468
 7551 7550 7552
 8684 7994 8711
 7909 7911 9067
 8463 8296 8464
 8586 8585 8640
 8634 8627 8843
 8808 8488 8874
 7550 7548 7564
 7525 7524 7526
 7688 7692 7693
 8793 8371 8794
 8018 8085 8562
 8582 8583 8584
 8707 8792 8835
 8876 8798 8877
 8525 8524 8528
 7656 7712 8587
 8435 8434 8714
 129 128 8895
 7692 7687 8456
 8527 8720 8904
 8716 8514 8879
 8628 8627 8634
 7561 7560 7562
 8744 8743 8745
 7737 8395 8445
 7573 7574 7575
 8808 8874 8875
 8584 8585 8586
 8468 7760 8469
 7829 7827 7863
 8745 8743 8941
 8368 8369 8542
 8461 8460 8524
 8797 8800 9653
 7911 7913 7914
 7525 7527 7528
 8866 8886 8887
 8653 8514 8716
 8642 7568 9096
 8557 7530 8558
 8835 8792 8855
 7543 7544 7545
 7912 8000 8610
 8742 8741 8743
 8794 8371 8795
 7560 7557 9037
 7680 7681 8818
 8622 8621 8974
 8525 8528 8529
 7528 7529 7530
 7907 7909 8184
 8736 8267 8820
 8463 8464 8550
 7559 7560 7561
 8790 8480 8791
 7793 7775 8606
 8873 8528 9071
 8741 8528 8873
 7525 7526 7527
 8331 8553 8554
 7939 7940 7942
 7520 7518 7741
 7779 7777 7780
 8951 8549 8959
 8542 8369 8543
 7528 7527 7529
 7911 7912 7913
 8472 8676 8811
 8461 8524 8525
 8516 8272 8860
 8744 8745 8746
 7540 7541 7542
 7562 7685 7686
 8435 8714 8822
 7942 7943 7945
 7551 7552 7553
 7661 7662 7663
 8634 8843 8844
 7953 7886 8589
 8529 8528 8741
 8866 8540 8886
 7565 7556 9073
 7566 7568 8642
 8435 8822 8823
 8214 9217 9218
 7919 7918 7920
 8527 8594 8720
 7942 7940 7943
 8468 8469 8691
 8497 8284 8639
 8742 8743 8744
 8632 8630 8633
 8762 8480 8790
 7917 7916 7918
 8445 8658 8724
 8679 8665 8781
 7696 7608 7699
 8794 8891 8971
 7558 7565 7566
 8746 8745 8747
 8601 8600 8602
 8562 8563 8838
 8956 8688 8957
 7945 7943 7946
 8823 8822 8920
 8626 8627 8628
 8794 8795 8891
 7909 7910 7911
 7698 7694 8362
 7925 7926 7927
 7914 7915 7994
 7620 7618 7678
 8331 8554 9025
 7545 7544 7546
 7936 7938 7939
 8469 7760 8730
 7945 7946 7947
 7919 7920 7921
 8497 8639 8710
 8445 8465 8658
 8887 8888 8889
 7566 7565 7567
 8691 8469 8898
 7543 7545 8559
 8792 8679 9072
 8687 8651 8688
 8949 8646 8955
 7693 7692 7694
 7544 7542 9330
 7917 7918 7919
 8336 8919 8928
 7915 7913 7916
 8550 8464 8783
 7722 8598 8599
 7893 7894 7895
 7583 7581 7585
 7915 7916 7917
 8529 8741 8742
 7920 7918 7992
 8052 8648 8893
 7575 7574 7576
 7526 7524 7682
 8737 8738 8864
 7621 7623 9303
 7480 136 9023
 7686 7685 7687
 7573 7575 7755
 8818 7681 8892
 7947 7946 7948
 8445 8395 8465
 8582 8584 9356
 8052 8181 8648
 7567 7565 8571
 8311 7924 8712
 7667 7666 9095
 7568 7567 7569
 7553 7552 7554
 8290 8180 9235
 7610 8480 8762
 8400 8514 8653
 8653 8716 8717
 7698 8362 8828
 7939 7938 7940
 7754 8468 8573
 8229 8162 9274
 8659 8317 8725
 7914 7913 7915
 8408 8769 8770
 7705 9171 9172
 8559 7545 8568
 8506 8392 8555
 7683 8419 8617
 7566 7567 7568
 8408 8406 8769
 8725 8317 9145
 8407 8408 8518
 8387 8220 9243
 8699 8120 8757
 7779 7780 7781
 7546 7544 7547
 7570 7569 7571
 7998 8015 8616
 8555 8392 8696
 7822 7824 7877
 7981 7903 9317
 8542 8543 9340
 8567 7994 8684
 7542 7541 7722
 7663 7662 7664
 7998 8014 8015
 7631 9296 9297
 7806 7808 9416
 7568 7569 7570
 7617 7590 7618
 7754 7672 7760
 8877 8798 9514
 7936 7937 7938
 8354 8371 8793
 8848 8570 8849
 8033 9201 9202
 8550 8783 8784
 8439 8317 8659
 8849 8570 8850
 7697 7776 8012
 8375 8374 9242
 7571 7569 7590
 8045 8004 9185
 8602 8600 8604
 8601 8602 8603
 8285 8284 8497
 7576 7574 7577
 7696 7699 7700
 8626 8628 8629
 8599 8598 8600
 8015 8014 8037
 7570 7571 7572
 7580 7582 7690
 7948 7946 7950
 7553 7554 7555
 8 126 7483
 7587 7589 7691
 7700 7702 7705
 8370 8191 8663
 7696 7700 9165
 132 131 7461
 8569 8570 8848
 7948 7950 7951
 8331 8519 8553
 8569 8568 8570
 139 138 7457
 8214 8056 9217
 8012 7776 8013
 7920 7992 7998
 7526 7682 7683
 7956 7951 7957
 7948 7951 7956
 8015 8037 8038
 8224 8222 8654
 156 155 9476
 8687 8688 8956
 8307 8247 8545
 8362 7694 9346
 7956 7957 7966
 149 7481 9024
 135 134 7472
 7554 7552 7723
 7952 7897 9321
 7943 7940 8197
 7789 7791 9182
 7819 8319 9336
 8015 8038 9170
 143 142 7467
 8305 8303 9335
 8934 8933 8935
 8005 8052 9147
 8935 8933 8952
 8084 8203 8751
 7705 7702 9171
 8617 8708 8709
 7700 7701 7702
 8750 8512 8774
 8623 8586 8624
 7904 7902 7906
 7576 7577 7578
 8064 8065 8066
 8148 8150 8151
 7722 7541 8597
 7912 7910 8000
 8325 8327 8615
 7966 7957 7967
 7951 7950 7960
 8012 8013 8023
 7663 7664 7666
 8066 8067 8068
 7555 7554 7556
 8038 8037 8047
 8634 8844 8845
 8559 8568 8569
 8062 8063 8064
 7646 7615 9198
 8742 8839 9343
 8271 8516 8842
 8235 9268 9269
 7938 7937 7941
 8066 8065 8067
 8769 8406 9304
 7932 8453 8840
 8677 8455 8764
 8060 8061 8062
 8068 8067 8069
 8461 8525 9082
 7945 7947 7949
 7546 7547 7548
 8336 8261 8919
 7700 7699 7701
 8629 8628 8630
 7966 7967 7982
 7571 7590 7617
 8023 8013 8024
 7591 7588 7593
 7784 7787 7789
 7789 7790 7791
 7578 7577 7579
 8060 8062 9187
 8062 8061 8063
 7948 7956 9155
 8038 8047 8048
 7729 7733 7783
 7806 7807 7808
 8064 8063 8065
 8151 8152 8153
 8739 8740 8966
 8504 8409 8830
 8062 8064 8228
 7789 7787 7790
 7791 7792 7794
 7808 7807 7809
 7614 7615 7644
 7626 7628 7629
 8066 8068 8083
 7808 7809 7811
 7606 7611 7614
 8146 8147 8148
 8802 8305 8965
 8060 8059 8061
 8068 8069 8070
 7617 7619 9458
 7683 7682 7684
 7998 7992 8014
 7614 7611 7615
 7794 7795 7799
 8058 8048 8059
 7791 7790 7792
 7895 7894 7896
 8282 7893 9098
 7626 7624 7627
 7982 7967 7983
 8024 8013 8025
 7799 7800 7801
 8109 8144 8145
 7811 7809 7812
 8506 8555 8924
 8151 8150 8152
 7781 7780 7782
 7711 7625 9300
 8148 8149 8150
 8038 8048 8058
 7959 7884 7961
 7794 7792 7795
 7579 7577 8446
 7811 7812 8017
 8058 8059 8060
 8023 8024 8027
 7578 7579 7580
 7644 7615 7645
 8048 8047 8097
 8024 8025 8026
 8070 8069 8071
 8913 8837 8914
 8718 8705 8825
 7806 7805 7807
 8145 8144 8146
 8617 8419 8708
 7644 7645 7709
 7783 7733 8164
 7799 7795 7800
 7905 7953 7954
 7791 7794 8198
 7663 7666 7667
 130 129 7473
 8623 8624 8625
 7793 8606 8700
 8063 8061 8080
 8833 8747 8846
 8629 9117 9337
 7722 8597 8598
 8323 8321 8733
 8067 8065 8202
 8047 8037 8057
 8109 8143 8144
 134 135 7466
 8026 8025 8035
 8104 8206 9279
 8677 8764 8953
 8932 8931 8933
 7846 7842 7970
 7808 7811 8033
 7976 7969 7977
 7983 7984 7985
 7846 7970 8046
 7954 7971 7972
 7799 7801 8001
 7968 7958 7969
 8629 8630 8631
 7966 7982 7996
 8321 7801 9352
 7983 7967 7984
 8070 8071 8072
 8105 8107 8281
 8167 8166 8180
 8107 8108 8109
 8026 8035 8036
 8011 8007 8032
 8164 7733 8492
 7980 7993 7999
 8058 8060 8291
 7580 7579 7581
 7983 7985 9207
 7792 7790 8338
 8072 8071 8074
 8151 8153 8192
 7712 7711 7713
 7683 7684 8419
 8071 8069 8073
 7985 7984 7986
 7684 7682 8560
 8521 8334 9248
 8414 8307 8455
 8023 8027 8134
 8165 8166 8167
 7985 7986 7987
 7980 7977 7988
 8153 8152 8154
 7715 7713 7716
 7989 7975 7990
 7719 7728 7729
 7720 7736 7739
 7712 7713 7714
 8105 8106 8107
 7985 7987 8008
 7720 7718 7736
 7988 7977 8216
 8014 7992 8310
 7644 7709 7737
 8055 8045 8056
 8076 8075 8077
 8625 8624 8626
 8036 8035 8099
 8072 8075 8076
 8325 8324 8326
 7580 7581 7582
 7714 7713 7715
 7734 7735 7748
 7714 7715 7717
 8076 8077 8078
 8167 8180 8243
 8078 8077 8079
 7987 7986 8016
 8466 8343 9295
 8055 8056 8110
 8078 8079 8081
 8325 8326 8327
 8008 7987 8009
 8631 8630 8632
 7748 7735 7749
 8089 8082 8090
 8081 8079 8082
 8040 7990 8093
 8001 7801 8321
 8046 7970 8231
 7886 7879 9197
 8072 8074 8075
 7734 7716 7735
 7830 7829 7831
 8039 7990 8040
 137 138 7456
 7729 7728 7733
 7996 7982 8002
 8010 8007 8011
 8110 8056 8137
 8273 8251 9246
 7844 7843 7845
 7715 7716 7734
 8044 8045 8055
 7714 7717 7758
 8081 8082 8089
 8008 8009 8049
 8087 8031 8098
 8099 8035 8121
 8036 8099 8100
 8100 8099 8235
 8436 8290 8437
 7684 8560 8561
 153 154 7476
 141 140 7479
 8345 8306 9237
 7843 7842 7846
 8231 7970 8314
 7993 7988 8007
 8342 8380 8381
 8040 8094 8095
 7738 8372 8477
 7756 7748 8501
 7841 7842 7843
 8040 8093 8094
 8134 8255 8332
 8327 8329 8330
 8134 8027 8135
 8084 8074 8203
 8327 8326 8329
 7731 7675 7732
 8330 8329 8354
 127 128 7484
 8075 8074 8084
 8246 8247 8306
 8364 8278 8420
 8326 8324 8328
 8478 8443 8479
 8561 8560 8649
 161 162 8867
 7719 7718 7720
 7968 7969 7976
 8368 8130 8369
 7727 7675 7731
 7758 8382 8383
 8095 8094 8111
 8082 8079 8136
 8081 8089 8113
 7744 7745 8440
 8404 8236 8405
 8280 8343 8466
 7974 7964 7975
 137 136 7480
 7841 7843 7844
 8036 8100 8138
 8237 8111 8239
 8265 8251 8273
 7734 7748 7756
 7749 8339 8340
 8113 8129 8251
 8289 8180 8290
 8348 8349 8365
 7749 7735 8339
 8170 8207 8253
 8243 8180 8289
 8374 8309 8416
 153 152 7475
 129 130 7482
 8049 8009 8050
 8117 8118 8141
 8322 8324 8325
 7784 7785 7787
 8046 8231 8232
 8271 8272 8516
 7744 7669 7745
 7737 7709 7742
 8462 7742 8643
 7989 8039 8346
 8114 8050 8115
 8055 8110 8168
 8137 8056 8214
 8246 8139 8247
 8094 8093 8270
 8103 8104 8105
 8192 8153 8199
 8218 8261 8336
 8258 8397 8398
 7674 7727 7743
 8138 8100 8139
 8134 8135 8255
 8332 8255 8333
 8340 8342 8541
 8631 8632 8635
 8016 7986 8125
 8168 8220 8297
 8442 8443 8478
 149 148 7481
 7758 7717 8382
 8395 7742 8462
 7744 8440 8441
 8440 7745 8442
 8095 8237 8238
 8167 8243 8271
 8226 8276 8277
 8231 8314 8315
 8233 8232 8234
 8271 8243 8272
 141 142 7471
 8115 8117 8254
 8270 8317 8439
 8294 8309 8374
 8119 8092 8204
 8095 8111 8237
 8350 8387 8454
 8418 8460 8461
 8030 8041 8096
 8049 8050 8114
 8141 8118 8177
 8295 8240 8296
 8244 8249 8334
 8244 8334 8335
 8277 8276 8431
 8381 8380 8417
 8407 8406 8408
 8215 8114 8217
 8226 8217 8276
 8279 8344 8359
 8356 8355 8388
 8115 8116 8117
 8225 8288 8348
 8238 8237 8257
 8374 8416 8487
 8672 8651 8687
 8280 8308 8343
 8340 8339 8341
 8366 8349 8402
 7651 7669 7744
 7728 7720 9219
 8442 7745 8443
 8306 8247 8307
 8113 8089 8129
 8213 8219 8331
 8264 8356 8357
 8294 8374 8375
 8487 8416 8488
 139 140 7478
 8251 8129 8280
 8259 8178 8283
 8405 8236 8406
 8264 8262 8355
 7738 7746 8372
 7848 7845 8201
 8052 8051 8181
 8239 8111 8240
 8177 8118 8274
 8138 8139 8246
 8215 8217 8226
 8350 8220 8387
 8244 8234 8249
 8334 8249 8376
 8335 8334 8521
 8340 8341 8342
 8365 8349 8366
 8356 8388 8389
 8393 8366 8394
 8393 8394 8423
 8418 8417 8460
 8561 8649 8650
 7787 7785 7804
 8280 8129 8308
 8288 8287 8415
 8294 8293 8309
 8405 8406 8407
 8650 8649 8651
 7719 7720 7728
 8046 8232 8233
 8212 8162 8229
 8208 8293 8294
 8246 8306 8345
 8258 8396 8397
 8264 8355 8356
 8295 8385 8386
 8423 8394 8424
 8277 8432 8484
 146 147 7477
 7844 7845 7847
 8049 8114 8215
 8270 8093 8317
 8262 8172 8263
 8306 8307 8414
 8389 8388 8467
 161 160 7474
 8279 8140 8344
 8188 8404 8483
 8277 8431 8432
 8367 8409 8410
 8378 8392 8506
 8381 8418 8515
 8436 8437 8438
 8650 8651 8672
 8030 8011 8031
 8315 8314 8316
 8400 8399 8401
 8372 7746 8373
 8088 8130 8131
 8113 8251 8265
 8117 8116 8118
 8177 8274 8275
 8192 8199 8260
 8239 8240 8295
 8259 8283 8458
 8335 8521 8522
 8351 8352 8367
 8365 8366 8393
 8381 8417 8418
 8168 8110 8220
 8218 8131 8261
 8477 8372 8544
 8104 8102 8206
 8233 8234 8244
 8367 8352 8409
 8398 8397 8399
 8398 8399 8400
 8484 8432 8485
 8043 8101 8102
 8043 8102 8103
 8208 8292 8293
 8128 8173 8174
 8255 8135 8256
 8348 8288 8349
 7656 7711 7712
 8128 8172 8173
 8297 8220 8350
 8225 8287 8288
 8332 8333 8474
 8410 8409 8504
 8127 8125 8447
 8126 8127 8128
 8128 8127 8172
 8230 8229 8303
 8289 8290 8436
 8295 8296 8385
 7738 7731 7746
 8029 8278 8364
 8278 8140 8279
 8141 8178 8259
 8208 8171 8292
 8173 8172 8262
 8279 8359 8379
 8474 8333 8491
 7855 7853 7856
 8115 8050 8116
 8131 8130 8368
 8256 8135 8284
 8249 8234 8252
 8256 8284 8285
 8351 8273 8352
 8932 8933 8934
 144 145 7458
 7847 7845 7848
 8016 8126 8449
 8088 8087 8130
 8141 8177 8178
 8173 8262 8264
 8213 8211 8219
 8396 8257 8493
 8431 8276 8433
 8354 8329 8371
 8275 8274 8361
 8304 8305 8475
 8330 8354 8358
 8385 8463 8507
 7758 8383 8384
 7991 8112 8448
 8108 8106 8248
 8212 8229 8230
 8304 8303 8305
 7852 7853 7854
 7854 7853 7855
 8188 8187 8236
 8275 8361 8411
 8385 8296 8463
 8411 8361 8412
 7674 7675 7727
 8103 8102 8104
 8223 8222 8224
 8322 8321 8323
 8181 8051 8576
 8170 8119 8171
 8188 8236 8404
 7852 7850 7853
 8088 8131 8218
 8225 8224 8287
 8230 8303 8304
 8265 8273 8351
 8186 8187 8188
 7737 7742 8395
 8378 8377 8392
 8300 8221 8301
 8238 8257 8258
 7673 7672 7754
 7855 7856 7857
 8112 8119 8170
 8342 8341 8380
 7651 7649 7669
 8258 8257 8396
 8105 8104 8106
 8042 8002 8450
 8029 8140 8278
 8223 8224 8225
 7674 7673 7675
 7727 7731 7738
 8016 8125 8126
 8126 8125 8127
 7642 7654 7710
 8041 8031 8087
 148 149 7470
 7847 7848 7849
 7671 7673 7674
 8010 8011 8030
 8112 8092 8119
 7849 7848 7850
 8166 8164 9403
 7991 8092 8112
 8041 8087 8088
 8322 8323 8324
 8161 8211 8213
 7841 7840 7842
 8207 8171 8208
 8170 8171 8207
 7845 7843 9227
 7847 7849 8122
 7993 8007 8010
 7849 7850 7852
 8299 8538 8539
 8043 8042 8101
 8211 8162 8212
 8154 8156 8157
 7980 7988 7993
 8107 8106 8108
 7976 7977 7980
 8030 8031 8041
 8005 8051 8052
 7656 7625 7711
 7592 7613 7721
 8003 8042 8043
 7671 7672 7673
 7650 7659 7679
 8992 8936 8993
 8299 8363 8538
 8163 8159 8227
 8221 8182 8473
 8091 8221 8300
 7647 7649 7651
 7996 8002 8003
 8427 8428 8429
 7989 7990 8039
 8109 8108 8143
 7671 7655 7672
 7991 7971 8092
 8003 8002 8042
 7785 7782 7786
 7850 7848 9234
 7949 8377 8378
 7784 7782 7785
 8186 8185 8187
 8158 8156 8159
 8190 8222 8223
 7582 7583 7584
 7704 7701 8337
 7616 7718 7719
 7962 7961 7963
 7838 7840 7841
 8044 8004 8045
 8008 8049 9259
 8161 8162 8211
 7649 7648 7650
 8459 8169 8476
 7582 7581 7583
 8025 8013 9166
 8158 8160 8161
 139 7478 9018
 7637 7639 7653
 7650 7648 7658
 7650 7658 7659
 8149 8147 8269
 8913 8931 8932
 8160 8159 8163
 8029 8028 8140
 8187 8185 8723
 7616 7612 7718
 7810 8186 8444
 8739 8425 8740
 7640 7638 7652
 7974 7975 7989
 7654 7655 7670
 8001 8321 8322
 151 152 7459
 7647 7648 7649
 8746 8747 8833
 7670 7655 7671
 8161 8160 8162
 7625 7624 7626
 8158 8159 8160
 7659 7660 7661
 8154 8152 8155
 8146 8144 8147
 8299 8298 8363
 7642 7643 7654
 7783 8165 8209
 7944 8191 8370
 7781 7782 7784
 8913 8914 8931
 7584 7586 7587
 8035 8025 9275
 7623 7625 7656
 8005 8044 8051
 8143 8108 9292
 7654 7643 7655
 7968 7976 8318
 8154 8155 8156
 8174 8173 9238
 8091 8182 8221
 8427 8426 8428
 7972 7971 7991
 7825 7823 8210
 7642 7640 7643
 8360 8638 8692
 8157 8156 8158
 7567 8571 9119
 7594 7595 7596
 8147 8144 9291
 7889 7890 7893
 8235 8099 9268
 7584 7583 7586
 7659 7658 7660
 7810 8185 8186
 7824 7825 7826
 7949 8313 8377
 7639 7640 7642
 7613 7616 7730
 7645 7646 7647
 8491 8333 8809
 7592 7612 7613
 7702 7704 7778
 7895 7897 7952
 8152 8150 9261
 8513 8512 8750
 7965 8028 8029
 7885 7886 7905
 7647 7646 7648
 155 156 7469
 7587 7588 7589
 8190 8123 8222
 7781 7784 9215
 7828 7830 7851
 7628 7627 7630
 7630 7627 7759
 7838 7837 7840
 7613 7612 7616
 7633 7635 7641
 7639 7638 7640
 7594 7563 7595
 7837 7835 7839
 7587 7586 7588
 8148 8147 8149
 7962 7964 7974
 7626 7627 7628
 7592 7591 7612
 7589 7588 7591
 8319 8169 8459
 8150 8149 8200
 8845 8844 8984
 7645 7615 7646
 7637 7638 7639
 8828 8362 8856
 7898 7896 7997
 7623 7622 7624
 7810 7803 8185
 7589 7591 7592
 7941 8902 8903
 7958 7884 7959
 8245 8298 8299
 7954 7953 7971
 7635 7636 7637
 8005 8004 8044
 8165 8164 8166
 7637 7636 7638
 8513 8750 8771
 7959 7961 7962
 8504 8830 8991
 7783 8164 8165
 7812 7813 7814
 8943 8609 8944
 7723 7552 9350
 8091 8019 8182
 8426 8425 8739
 7944 7935 8191
 7702 7701 7704
 7635 7634 7636
 7631 7630 7632
 8391 8245 9156
 7812 7809 7813
 7965 7963 8028
 7962 7963 7964
 7536 7535 7724
 7836 7837 7838
 7634 7632 7668
 7883 7958 7968
 7628 7630 7631
 8424 8426 8427
 8690 8979 8980
 7824 7823 7825
 7979 8004 8005
 7932 8452 8453
 7802 7805 7806
 7631 7632 7633
 8789 8522 9306
 7621 7620 7622
 158 157 7462
 7606 7607 7611
 7973 7979 8312
 8053 8021 8120
 8912 8837 8913
 7949 7947 8313
 8316 8726 8939
 7933 7935 7944
 7988 8216 9209
 7889 7893 8282
 8348 8365 9118
 7600 7602 7657
 7905 7886 7953
 160 161 7468
 8693 8705 8718
 8198 7794 9194
 9250 9248 9253
 7964 7963 7965
 8974 8621 8975
 7633 7634 7635
 7828 7829 7830
 7817 8123 8190
 7793 8700 8701
 7633 7632 7634
 7561 7563 7594
 7935 7936 9094
 158 159 7460
 7705 9172 9406
 8832 8718 8906
 8760 8226 9211
 8629 8631 9117
 7876 7874 8124
 8352 8273 8577
 8424 8394 8425
 7814 7813 7815
 7572 7571 9144
 7883 7881 7884
 7604 7605 7606
 7979 7978 8004
 7619 7621 7747
 8702 8880 8938
 8188 8483 9270
 7901 7903 7981
 8462 8643 8922
 8316 8314 8726
 7680 8818 8819
 8320 7867 9347
 8335 8522 8761
 7907 7908 7909
 7805 7803 7810
 8836 8837 8912
 7836 7835 7837
 7819 8169 8319
 7623 7624 7625
 8039 8040 9229
 7762 7533 9179
 7955 7904 9065
 8836 8806 8837
 8370 8663 8685
 7959 7962 9305
 8006 8018 9049
 8215 8226 8760
 7960 8719 8929
 7904 7906 7907
 8315 8316 8512
 8620 8834 8911
 7973 7978 7979
 8181 8576 8954
 7619 7618 7620
 8772 8771 8773
 8576 8051 9210
 8175 8245 8391
 8377 8313 8644
 8623 8625 9427
 8245 8176 8298
 8789 9306 9307
 8477 8812 8813
 7960 7950 8719
 8883 8580 8884
 7834 7836 8034
 8315 8512 8513
 8319 8502 8731
 8085 8019 8091
 7897 7896 7898
 8742 8744 8839
 8453 8776 8777
 8806 8534 8918
 7895 7896 7897
 7878 7882 8086
 8758 8486 9338
 8690 8531 8979
 8412 8748 8907
 8496 8609 8943
 8817 8683 8990
 7953 8589 9226
 8505 8810 8983
 8285 8497 8498
 8431 8433 8652
 7882 7885 7887
 7954 7972 7973
 7606 7605 7607
 7534 7535 7536
 7883 7884 7958
 8693 8718 8832
 8575 8474 8671
 7899 7898 7900
 8669 8713 8923
 7822 7823 7824
 8702 8518 8880
 7535 7533 7762
 8239 8295 9231
 8324 8323 9088
 8410 8504 8703
 7885 7879 7886
 7531 7533 7534
 8856 8857 8858
 8652 8433 8752
 8673 8675 8948
 8491 8809 8862
 8424 8425 8426
 7973 7972 7978
 7873 7875 7995
 7903 7904 7955
 8788 8522 8789
 8388 8355 8689
 8259 8458 8579
 7779 7781 8605
 7932 7926 8452
 8527 8292 8594
 7602 7603 7604
 7930 7933 9146
 8533 8805 8826
 8708 8801 8921
 7828 7827 7829
 7897 7898 7899
 7812 7814 9415
 7903 7902 7904
 8547 8301 8694
 8752 8753 8768
 8477 8544 8812
 8533 8534 8805
 7880 7876 7881
 8022 8021 8053
 8270 8439 8728
 8693 8692 8705
 8022 8053 8054
 8332 8474 8575
 8508 8283 8882
 7834 7835 7836
 7901 7900 7902
 8453 8452 8776
 8351 8367 8647
 8708 8419 8801
 8379 8359 8503
 8076 8078 8578
 7901 7902 7903
 8330 8358 8827
 7621 7622 7623
 8814 8544 8890
 7941 8591 8902
 8458 8283 8508
 8485 8432 8531
 7534 7533 7535
 7666 7703 7706
 8613 8003 9160
 8752 8433 8753
 7880 7881 7883
 8397 8396 9083
 8414 8455 8677
 8412 8361 8656
 8992 8993 8994
 8145 8146 8782
 8761 8522 8788
 7604 7603 7605
 7601 7599 8641
 8407 8518 8702
 8805 8534 8806
 8669 8503 8713
 7561 7562 7563
 7899 7900 7901
 8505 8467 8810
 7817 7815 8123
 8364 8420 8686
 7596 7598 8347
 8580 8458 9177
 8054 8053 8132
 8887 8886 8888
 7878 7879 7882
 8789 9307 9308
 8289 8436 8667
 8805 8806 8836
 8412 8656 8748
 8020 8021 8022
 8513 8771 8772
 7868 7889 9150
 8521 9248 9250
 8610 8611 8657
 7868 7888 7889
 8620 8697 8834
 7889 7888 7890
 7531 7529 7533
 7925 7927 7928
 8863 8862 8977
 8427 8429 8620
 7882 7879 7885
 7600 7601 7602
 8360 8344 8638
 7924 7925 9054
 8833 8846 8847
 8532 8531 8690
 8343 8308 8470
 8533 8532 8534
 8360 8692 8693
 8190 8223 8735
 7935 7934 7936
 8535 8470 8536
 8496 8428 8609
 7802 7803 7805
 7933 7934 7935
 8746 8833 8976
 8410 8703 8704
 8581 8580 8883
 8675 8674 8872
 8429 8428 8496
 8584 8586 8623
 8812 8544 8814
 8781 8665 9060
 7602 7601 7603
 7819 7820 8169
 8441 8683 8817
 8379 8669 8940
 7857 7859 8183
 7875 7876 7880
 7530 7529 7531
 8686 8420 8763
 8389 8486 8758
 8343 8470 8535
 8470 8308 8574
 7911 7910 7912
 7941 7937 8591
 8359 8344 8360
 8485 8531 8532
 8673 8674 8675
 7833 7831 8194
 7834 7833 7835
 8491 8862 8863
 8176 8133 8242
 7908 7906 8250
 8033 7811 9201
 8579 8458 8580
 8175 8176 8245
 7875 7874 7876
 7619 7620 7621
 8673 8672 8674
 8546 8853 8970
 7996 8003 8613
 7922 7924 8311
 7868 7864 7888
 7740 7707 7757
 7816 7815 7817
 8620 8429 8697
 8831 8523 8841
 8936 8935 9384
 8179 7788 8286
 8018 8019 8085
 7909 7908 7910
 7869 7870 7878
 8379 8503 8669
 8378 8506 8572
 8635 8632 8636
 7631 7633 9296
 7870 7867 8320
 8631 8635 8695
 7925 7923 7926
 8501 7748 8945
 8365 8393 8662
 8937 8936 8992
 7598 7599 7600
 7866 7869 8566
 8731 8502 8732
 8650 8672 8673
 7936 7934 7937
 7600 7599 7601
 8824 8612 8905
 7878 7870 7879
 7586 7583 9332
 8856 8362 8857
 8525 8529 8722
 8020 8006 8021
 8486 8467 8505
 7822 7821 7823
 8253 8207 8749
 8720 8594 8721
 8475 8803 8804
 8579 8580 8581
 7814 7815 7816
 7826 7827 7828
 8442 8478 8854
 8485 8532 8533
 8500 8765 9435
 8346 8039 8727
 7933 7931 7934
 7873 7874 7875
 127 7484 9022
 8389 8467 8486
 7866 7867 7869
 8695 8635 8881
 7931 7929 8193
 7893 7890 7894
 7703 7707 7708
 7861 7864 7865
 8612 8000 9345
 7617 7618 7619
 8486 8505 8517
 8728 8439 8729
 7927 7926 7932
 7826 7825 7827
 8479 8614 8756
 7872 7862 8593
 7661 7660 7662
 8253 8749 8885
 7873 7872 7874
 7717 7715 9264
 8854 8478 8964
 7666 7664 7703
 7598 7597 7599
 8562 8085 8563
 7832 7833 7834
 7869 7867 7870
 8475 8305 8802
 7596 7597 7598
 8894 8501 9358
 7930 7931 7933
 7597 7595 7609
 7944 8370 8592
 8934 8935 8936
 8519 8520 8859
 7919 7921 7922
 8483 8523 8831
 7871 7872 7873
 8018 7892 8019
 8611 8612 8824
 8483 8404 8523
 8479 8756 8925
 7703 7664 7707
 7865 7864 7868
 8694 8754 8900
 8441 8440 8683
 8934 8936 8937
 7802 7800 7803
 7861 7865 7866
 8516 8860 8861
 7922 7921 7923
 8253 8885 8942
 163 164 7463
 7859 7858 7860
 7596 7595 7597
 7928 7930 8189
 8706 7736 8796
 8621 8602 9334
 8319 8459 8502
 7859 7860 7861
 7463 164 9702
 7854 7862 7871
 7788 7740 8268
 8610 8000 8611
 7819 7818 7820
 7924 7923 7925
 7922 7923 7924
 8603 8602 8621
 7871 7862 7872
 7857 7858 7859
 7858 7856 8195
 7894 7890 8196
 8363 8298 8786
 7832 7831 7833
 8175 8133 8176
 8500 8499 8765
 8350 8454 8682
 7708 7707 7740
 8218 8336 8582
 7928 7927 7929
 8454 8387 8737
 7708 7788 8179
 7907 7906 7908
 7861 7860 7864
 7854 7855 7862
 8006 7892 8018
 7820 7821 7822
 7857 7856 7858
 8765 8499 8766
 8454 8737 8759
 7891 8006 8020
 7866 7865 7867
 8546 8851 8853
 8611 8000 8612
 7801 7800 7802
 7914 7994 8567
 8502 8459 8666
 8595 8022 9353
 8054 8132 8133
 7708 7740 7788
 8323 8733 8734
 7820 7818 7821
 8401 8499 8500
 8519 8219 8520
 7930 7929 7931
 8851 8493 8852
 8331 8219 8519
 7739 7736 8706
 8694 8301 8754
 8543 8668 8698
 7830 7831 7832
 7928 7929 7930
 7783 8209 8780
 8230 8304 8457
 8499 8399 9331
 8401 8399 8499
 8546 8493 8851
 8475 8802 8803
 8396 8493 8546
 8543 8369 8590
 8020 8022 8595
 7816 7817 7818
 8179 8815 8816
 7816 7818 7819
 8668 8680 8681
 8054 8133 8175
 8543 8590 8668
 7891 7892 8006
 8668 8590 8680
 7797 7891 9029
 7891 7798 7892
 8552 8302 8661
 7797 7798 7891
 8421 8618 8619
 7796 8302 8552
 7753 7797 8596
 8618 8422 8785
 7797 7796 7798
 8421 8422 8618
 8422 7752 8637
 7796 7751 8302
 7753 7796 7797
 8421 7752 8422
 7753 7751 7796
 7750 7752 8421
 7665 7751 7753
 7750 7532 7752
 7665 7750 7751
 7665 7532 7750
 7495 7665 9027
 7495 7532 7665
 8829 8972 9424
 7476 9010 9011
 9194 9377 9445
 8232 8231 9302
 7495 7494 7532
 8809 8333 9232
 7467 142 9006
 8829 7677 8972
 9453 9452 9475
 8870 8867 9004
 8868 8870 8871
 8869 8868 8995
 9102 8446 9103
 9139 9138 9140
 7488 7494 7495
 9007 9008 9503
 8645 7677 8829
 8799 8876 9652
 9451 9452 9453
 8868 8867 8870
 7468 8868 8869
 7473 8896 8897
 9093 8311 9460
 7732 7675 9091
 7640 7652 9287
 9079 9078 9080
 9101 8446 9102
 8413 7513 9361
 8250 9251 9814
 8318 7976 9294
 8135 8027 9128
 146 145 7453
 7969 7958 9192
 7641 7635 9267
 8591 7937 9333
 8447 8125 9256
 8122 9138 9139
 9089 8734 9505
 8262 8263 9200
 8228 9700 9717
 9007 136 9008
 7488 7487 7494
 9328 8196 9818
 126 8 9005
 126 127 9022
 150 149 9024
 138 139 9018
 7468 161 8867
 136 135 9023
 164 7 9702
 7473 129 8895
 8650 8673 9299
 142 141 9006
 7956 7966 9289
 7998 8616 9114
 8067 8202 9281
 8114 8115 9223
 7553 7555 9069
 7452 7677 8645
 7916 7913 9106
 8233 8244 9236
 8112 8170 9320
 7741 7518 9357
 9159 8197 9478
 9273 9245 9728
 9451 8595 9452
 9212 8484 9213
 7737 8445 9081
 7468 8867 8868
 7473 8895 8896
 8868 8871 8995
 9157 8758 9158
 8233 9236 9276
 7693 7697 9038
 8449 8126 9258
 8778 8460 9076
 7712 7714 9075
 8094 8270 9151
 7776 7695 9041
 7813 7809 9121
 8593 7862 9188
 7458 145 9017
 7846 8046 9276
 8344 8140 9224
 145 146 9017
 8465 9497 9834
 8028 9154 9224
 8231 8315 9302
 8259 8579 9257
 8554 8998 8999
 8719 7950 9159
 7665 7753 9027
 7798 7796 8552
 8596 7797 9029
 7891 8020 9029
 7519 7522 9031
 7725 7516 9031
 7537 7680 9033
 8565 8530 8997
 7557 7558 9037
 8132 8053 8699
 8583 8336 8928
 8022 8054 9353
 8665 8622 9060
 8481 8290 9235
 8018 8562 9049
 8738 8387 9243
 7904 7907 9065
 8879 8514 9063
 8021 8006 9049
 7925 7928 9054
 8588 8229 9274
 8401 8500 9063
 7911 7914 9067
 7685 7560 9037
 8528 8524 9071
 8184 7909 9067
 7531 7534 9033
 8319 8731 9336
 8213 8331 9025
 8589 7886 9197
 8679 8781 9072
 7556 7554 9073
 7816 7819 9336
 7893 7895 9098
 8965 8305 9335
 8480 7696 9165
 8303 8588 9335
 8525 8722 9082
 7666 7706 9095
 7936 7939 9094
 7568 7570 9096
 7748 7749 8945
 7628 7631 9297
 7569 7567 9119
 7947 7948 9155
 7747 7621 9303
 8529 8742 9343
 8220 8110 9243
 8162 8160 9274
 8004 7978 9185
 8052 8893 9147
 8180 8166 9235
 8317 8093 9145
 8017 7812 9415
 7700 7705 9165
 8365 8662 9118
 7889 8282 9150
 8631 8695 9117
 8245 8299 9156
 7615 7611 9198
 8374 8487 9242
 8003 8043 9160
 8013 7776 9166
 7571 7617 9144
 7979 8005 9147
 7933 7944 9146
 8571 7565 9073
 7702 7778 9171
 8038 8058 9170
 8616 8015 9170
 8626 8629 9337
 8062 8228 9187
 7903 7955 9317
 7808 8033 9416
 8577 8273 9246
 8144 8143 9291
 7985 8008 9207
 7784 7789 9215
 8291 8060 9187
 8186 8188 9270
 7720 7739 9219
 8334 8376 9248
 8251 8280 9246
 8306 8414 9237
 7843 7846 9227
 8201 7845 9227
 7848 8201 9234
 8049 8215 9259
 8226 8277 9211
 8106 8104 9279
 8108 8248 9292
 8173 8264 9238
 7791 8198 9182
 8150 8200 9261
 8099 8121 9268
 8121 8035 9275
 8007 7988 9209
 8155 8152 9261
 8025 9166 9275
 8164 8492 9403
 7794 7799 9194
 8328 8324 9088
 8051 8044 9210
 8522 8521 9306
 7962 7974 9305
 8323 8734 9088
 8040 8095 9229
 8269 8147 9291
 8458 8508 9177
 7879 7870 9197
 8056 8045 9217
 7625 7626 9300
 8343 8535 9295
 8295 8386 9231
 7694 7692 9346
 8191 7935 9094
 8406 8236 9304
 7623 7656 9303
 7897 7899 9321
 8733 8321 9352
 8605 7781 9215
 8798 8797 9514
 7542 7722 9330
 8884 8580 9177
 8712 7924 9054
 7547 7544 9330
 7533 7529 9179
 7552 7550 9350
 8727 8039 9229
 7619 7747 9458
 7811 8017 9201
 7633 7641 9296
 8396 8546 9083
 7715 7734 9264
 8000 7910 9345
 8602 8604 9334
 8486 8517 9338
 7971 7953 9226
 8993 8936 9384
 8857 8362 9346
 8399 8397 9331
 7867 7865 9347
 7583 7585 9332
 8242 8133 8489
 8543 8698 9340
 7801 7802 9352
 8189 7930 9146
 8584 8623 9356
 8975 8621 9334
 7729 7783 8780
 8766 8499 9331
 8501 8945 9358
 8205 8736 9364
 7774 7779 9360
 8390 8775 9362
 8266 7773 9360
 8608 7510 9365
 7768 7771 9364
 8495 7506 8901
 7504 8494 9369
 7507 7503 9365
 7709 7645 9195
 9191 9192 9193
 8476 8928 9721
 8333 8255 9232
 7689 9078 9079
 7528 8557 9039
 146 7477 9017
 7927 7932 9110
 7863 7827 9131
 8389 8758 9157
 8203 9272 9273
 8728 9097 9151
 7686 7761 9084
 8377 8644 9164
 8064 8066 9176
 9097 8240 9151
 8995 8871 8996
 8347 7598 9112
 7513 7512 9361
 8379 8940 9233
 8554 8999 9025
 7853 7850 9290
 7538 7536 9314
 7579 8446 9101
 7635 7637 9267
 8125 7986 9256
 7743 7727 9228
 7770 8142 9359
 8157 9263 9391
 8115 8254 9223
 7648 7646 9355
 8730 7760 9286
 7454 154 8967
 7849 7852 9137
 8069 8067 9281
 8194 7831 9318
 8276 8217 9222
 8457 9162 9703
 8537 7764 9422
 8503 8359 9324
 7592 7721 9203
 8830 8409 9288
 7871 7873 9174
 9192 7959 9305
 8170 8253 9320
 8448 8112 9320
 8866 8887 9682
 7459 9012 9499
 7518 7515 9357
 8217 8114 9223
 9244 8415 9245
 8116 8050 9241
 7689 7576 9078
 8113 8265 9230
 9092 9093 9460
 9143 9142 9486
 7880 9283 9284
 8126 8128 9258
 8460 8417 9076
 8197 7940 9148
 7695 7698 9041
 8294 8375 9262
 8203 8074 9272
 8190 8735 9077
 8057 8037 9312
 8339 7735 9043
 7872 8593 9325
 9068 9069 9070
 8239 9231 9329
 8852 8493 9329
 8046 8233 9276
 9025 8999 9391
 7973 8312 9133
 8140 8028 9224
 8638 8344 9224
 141 7479 9006
 7852 7854 9136
 9174 7995 9175
 8122 9137 9138
 7645 7647 9195
 7483 126 9022
 7456 138 9018
 135 7472 9023
 7465 150 9024
 9088 8734 9089
 9182 8198 9183
 8945 7749 8946
 9185 7978 9186
 9317 7955 9433
 9416 8033 9417
 9248 8376 9249
 8727 9229 9374
 9458 7747 9459
 8242 8489 8490
 8867 162 9004
 8945 8896 9358
 9128 8027 9387
 7525 7528 9039
 7932 8840 9110
 7929 7927 9110
 7827 7825 9131
 8356 8389 9157
 9190 8116 9241
 8801 8419 9298
 8795 9701 9789
 8066 8083 9176
 8228 8064 9176
 8279 8379 9233
 7598 7600 9112
 8874 8488 9057
 8076 8578 9181
 9152 7881 9153
 7856 7853 9290
 7850 9234 9290
 7536 7724 9314
 7541 7538 9314
 7732 9091 9396
 7772 7770 9359
 7727 7738 9228
 7954 7973 9133
 7643 7640 9287
 9359 8142 9362
 7646 9198 9355
 7658 7648 9355
 8776 8452 9444
 8366 8402 9135
 9432 9129 9442
 8359 8360 9324
 8122 7849 9137
 7831 7829 9318
 8568 7545 9326
 8409 8352 9288
 7873 7995 9174
 8654 8222 9443
 8081 8113 9230
 8050 8009 9241
 7576 7578 9078
 7817 8190 9077
 8208 8294 9262
 8074 8071 9272
 8072 8076 9181
 8671 8474 9310
 9069 7559 9370
 8456 7687 9379
 7854 7871 9136
 7681 7539 9064
 8576 9210 9411
 7724 7535 9323
 7593 7588 8950
 7787 7804 9271
 8726 8314 9214
 8127 8447 9240
 8979 8531 9315
 9077 8735 9418
 7545 7546 9326
 8222 8123 9443
 7455 7487 7488
 7487 7486 7489
 8620 8911 9309
 8633 8630 9327
 8574 8308 9254
 9189 8274 9190
 8474 8491 9310
 7597 7609 9344
 8810 8467 9311
 8016 8449 9216
 7535 7762 9323
 8372 8373 9313
 7588 7586 8950
 8550 8784 9543
 7790 7787 9271
 8172 8127 9240
 8427 8620 9309
 9070 9069 9370
 8630 8628 9327
 8308 8129 9254
 8544 8372 9313
 9219 9220 9855
 8643 7742 9196
 7511 7514 9363
 7514 7725 9363
 7509 7511 9363
 8241 7769 9368
 8410 8704 9293
 8471 8241 9368
 7769 7767 9368
 8332 8575 9255
 7493 8927 9734
 8134 8332 9255
 8586 8640 9111
 8843 8627 9111
 8624 8586 9111
 8023 8134 9255
 8627 8624 9111
 8012 8023 9255
 8367 8410 9293
 7767 8607 9368
 8767 7509 9363
 7989 8346 9426
 8647 8367 9293
 9108 8691 9731
 8068 8070 9180
 7974 7989 9426
 9318 7863 9319
 7742 7709 9196
 8838 8563 9741
 8890 8544 9313
 9486 9142 9501
 8083 8068 9180
 7885 7905 9132
 8129 8089 9254
 8628 8634 9327
 8847 9006 9839
 8424 8427 9309
 8316 8939 9163
 8774 8512 9163
 8263 8172 9240
 8338 7790 9271
 9553 8558 9837
 8950 7586 9332
 7987 8016 9216
 8467 8388 9311
 8484 8485 9213
 8595 9353 9452
 7599 7597 9344
 9057 8430 9058
 7616 7719 9026
 9086 8941 9858
 7939 7942 9409
 8491 8863 9310
 7905 7954 9133
 7580 7690 9372
 7887 7885 9132
 8089 8090 9254
 8634 8845 9327
 8423 8424 9309
 8070 8072 9181
 8431 8652 9315
 8531 8432 9315
 7546 7549 9326
 8314 7970 9214
 7842 7840 9214
 8512 8316 9163
 8587 9389 9390
 7477 147 9013
 148 7470 9013
 8009 7987 9216
 8388 8689 9311
 7543 8559 9064
 7539 7540 9064
 8641 7599 9344
 7609 7595 9085
 7749 8340 8946
 8033 9202 9417
 7978 7972 9186
 9248 9249 9253
 7984 9168 9256
 7818 7817 9077
 8435 8823 9173
 8071 8073 9272
 8207 8208 9262
 9037 7558 9378
 8078 8081 9230
 9191 7969 9192
 8922 8819 9760
 8432 8431 9315
 7549 7726 9326
 8352 8577 9288
 8360 8693 9324
 8394 8366 9135
 8740 8425 9135
 7970 7842 9214
 7829 7863 9318
 8451 7658 9355
 7775 7772 9359
 7852 9136 9137
 9222 8217 9223
 7738 8477 9228
 7452 7496 7677
 8488 8416 9057
 8278 8279 9233
 8597 7541 9314
 8195 7856 9290
 8419 7684 9298
 7540 7543 9064
 7600 7657 9112
 7595 7563 9085
 8357 8356 9157
 7825 8210 9131
 8193 7929 9110
 7523 7525 9039
 7647 7651 9195
 8493 8257 9329
 8237 8239 9329
 7874 7872 9325
 148 147 9015
 8037 8014 9312
 7941 8903 9148
 7940 7938 9148
 7821 7818 9077
 8749 8207 9262
 8073 9281 9282
 7709 9195 9196
 7547 9330 9375
 8128 8174 9258
 8578 8078 9230
 7683 8617 9178
 7527 7526 9178
 8843 9111 9395
 7561 7594 9370
 7589 7592 9203
 7515 8413 9357
 8520 9385 9767
 8253 8942 9320
 9124 8572 9409
 8433 8276 9222
 7655 7643 9286
 7760 7672 9286
 8426 8739 9169
 8609 8428 9169
 9160 8103 9376
 8693 8832 9324
 7559 7561 9370
 8425 8394 9135
 8073 8069 9281
 8898 8469 9383
 9569 8667 9578
 8606 7775 9359
 8477 8813 9228
 7578 7580 9372
 7581 7579 9101
 9081 8724 9405
 7986 7984 9256
 8416 8430 9057
 7637 7653 9267
 9405 8724 9449
 8509 8510 8958
 8420 8278 9233
 9198 7611 9199
 8392 8377 9164
 7562 7686 9084
 7512 8787 9361
 7684 8561 9298
 7611 7607 9199
 9136 7871 9174
 9068 7553 9069
 7676 7523 9039
 7950 7946 9159
 7943 8197 9159
 8254 8117 9257
 8141 8259 9257
 163 7463 9004
 8315 8513 9302
 8255 8256 9232
 7753 8596 9027
 9029 8595 9451
 9215 9182 9463
 9238 8357 9239
 9211 8484 9212
 9217 9185 9454
 9083 8970 9456
 8020 8595 9029
 8530 8894 8997
 7522 8556 9031
 7680 8819 9033
 8821 8583 8928
 8800 8481 9235
 8622 8974 9060
 7907 8184 9065
 8120 8021 9049
 7928 8189 9054
 8791 8480 9165
 9514 8797 9653
 8524 8778 9071
 7554 7723 9073
 7895 7952 9098
 7914 8567 9067
 7590 7569 9119
 7814 7816 9336
 7629 7628 9297
 8313 7947 9155
 8043 8103 9160
 8299 8539 9156
 8093 7990 9145
 7789 9182 9215
 7734 7756 9264
 8044 8055 9210
 8444 8186 9270
 7799 8001 9194
 8032 8007 9209
 8058 8291 9170
 8110 8137 9243
 8277 8484 9211
 8095 8238 9229
 9207 8008 9259
 8264 8357 9238
 8280 8466 9246
 8248 8106 9279
 8160 8163 9274
 8215 8760 9259
 8312 7979 9147
 7870 8320 9197
 9235 8166 9403
 7626 7629 9300
 8236 8187 9304
 9165 7705 9406
 8045 9185 9217
 7722 8599 9330
 8521 9250 9306
 8397 9083 9331
 9144 7617 9458
 8054 8175 9353
 8546 8970 9083
 8625 8626 9337
 7944 8592 9146
 7529 7527 9179
 8092 7971 9226
 7570 7573 9096
 7692 8456 9346
 8722 8529 9343
 7910 7908 9345
 7550 7564 9350
 7865 7868 9347
 7802 7806 9352
 7656 8587 9303
 9356 8623 9427
 7779 8605 9360
 7766 7768 9364
 7502 7504 9369
 8257 8237 9329
 7503 7501 9365
 9129 9128 9387
 7857 8183 9188
 7862 7855 9188
 8124 7874 9325
 7964 7965 9205
 8014 8310 9312
 9038 7697 9413
 8111 8094 9151
 7714 7758 9075
 7610 8762 9199
 7938 7941 9148
 8268 9726 9753
 7688 7693 9038
 8252 8234 9412
 9464 8866 9682
 7644 7737 9081
 8232 9302 9412
 7526 7683 9178
 7977 7969 9191
 8244 8335 9236
 7551 7553 9068
 7462 7498 9836
 7691 7589 9203
 7920 7998 9114
 7966 7996 9289
 8753 8433 9222
 9155 9289 9380
 9000 8382 9001
 7672 7655 9286
 9180 8070 9181
 8428 8426 9169
 8561 8650 9299
 9347 9150 9474
 147 148 9013
 7776 9041 9166
 9030 7520 9400
 8468 8691 9108
 8009 9216 9241
 9132 7905 9133
 8355 8262 9200
 9227 7846 9276
 8469 8730 9383
 9196 9195 9386
 162 163 9004
 7931 8193 9333
 7937 7934 9333
 8608 9365 9429
 7604 9405 9449
 8284 8135 9128
 7976 7980 9294
 7585 7581 9101
 7558 7566 9378
 9652 8876 9701
 9641 7508 9871
 9286 7643 9287
 7754 8573 9091
 7675 7673 9091
 8573 9108 9109
 8558 7530 9401
 8926 8509 8958
 8096 9316 9356
 9182 9183 9463
 9185 9186 9454
 8696 8392 9164
 7563 7562 9084
 7995 9284 9394
 140 141 9019
 9257 8579 9414
 8988 8536 9436
 7687 7685 9379
 8024 8026 9387
 9193 9192 9305
 9091 8573 9396
 7946 7943 9159
 8117 8141 9257
 8639 9128 9129
 8513 8772 9302
 9078 7578 9372
 8554 8985 8998
 8985 8553 8986
 7756 8564 9264
 8539 8899 9156
 8055 8168 9210
 7990 7975 9145
 8187 8723 9304
 8204 8092 9226
 7573 7755 9096
 7908 8250 9345
 7868 9150 9347
 9352 7806 9416
 7814 9336 9415
 8175 8391 9353
 8676 8471 9421
 8471 9368 9421
 155 154 7454
 7766 9364 9422
 7918 7916 9105
 8310 7992 9105
 9305 7974 9426
 9346 8456 9457
 8254 9257 9414
 7607 7610 9199
 9094 7939 9409
 7481 148 9015
 8981 8155 9644
 7563 9084 9085
 7855 7857 9188
 8361 8274 9189
 8103 8105 9376
 7975 7964 9205
 7984 7967 9168
 8240 8111 9151
 7758 8384 9075
 7761 7688 9038
 8850 8570 9404
 7837 7839 9410
 8183 7859 9074
 7861 7866 9074
 7661 7663 8982
 7747 9390 9459
 8234 8232 9412
 7815 7813 9120
 7527 9178 9179
 7460 159 9366
 160 7468 9366
 130 7473 9367
 7461 131 9367
 8028 7963 9154
 7614 7644 9081
 8351 8647 9408
 8310 9105 9107
 8107 8109 9184
 9105 7916 9106
 7991 8448 9186
 9387 8026 9442
 7951 7960 9167
 9218 9217 9454
 7708 8179 9134
 7596 8347 9425
 7470 8979 9485
 7884 7881 9152
 8300 8548 9351
 8085 8091 9351
 8203 9273 9462
 7778 8435 9173
 8216 7977 9191
 8438 9202 9578
 7896 7894 9328
 8533 8826 9213
 8335 8761 9236
 7726 7551 9068
 9045 7629 9509
 7660 8451 9055
 8585 8821 9046
 8340 8541 8946
 7972 7991 9186
 7921 7920 9114
 7521 7520 9030
 7682 7524 9030
 8296 8240 9097
 8960 8541 8961
 7996 8613 9289
 7719 7729 9026
 7968 8318 9283
 7880 7883 9283
 8603 8664 9062
 8353 8266 9382
 8896 8895 9358
 8364 8686 9518
 8485 8533 9213
 9080 9078 9372
 7721 9247 9647
 9307 8196 9705
 9064 8559 9402
 8573 8468 9108
 8407 8702 9322
 7564 7548 9467
 8649 8560 9400
 137 7480 9016
 7457 138 9016
 8689 8355 9200
 8536 8470 9436
 9145 7975 9205
 9256 9168 9388
 8309 8293 9048
 8341 8339 9042
 8408 8770 9130
 9230 8265 9408
 8002 7982 9266
 7934 7931 9333
 8726 9214 9410
 8568 9326 9404
 9214 7840 9410
 9301 8192 9407
 9451 9453 9607
 8639 8284 9128
 7980 7999 9294
 9070 9370 9425
 8617 8709 9446
 8757 8120 9399
 8138 8246 9432
 7681 9064 9402
 8554 8553 8985
 7566 8642 9378
 9183 8198 9445
 7472 134 9438
 8508 8882 9685
 8036 8138 9442
 7673 7754 9091
 8266 9360 9382
 9255 8575 9413
 8745 8941 9086
 8012 9255 9413
 9370 7594 9425
 7530 7531 9401
 8123 9120 9443
 9205 7965 9450
 9260 8667 9431
 8723 9285 9473
 9326 7726 9404
 7604 7606 9405
 8640 9046 9047
 9120 7813 9121
 9420 9419 9484
 8029 8364 9450
 7531 9033 9401
 7744 8441 9386
 8578 9230 9408
 8725 9145 9205
 8027 8024 9387
 8288 8415 9244
 8402 8349 9244
 9037 9378 9379
 8210 9418 9489
 7707 7664 9056
 9052 8098 9053
 8146 8148 9301
 8151 8192 9301
 7489 7493 9734
 7792 8338 9285
 9266 9207 9455
 8292 8171 9349
 8119 8204 9349
 7455 162 7486
 8139 8100 9461
 8447 9256 9388
 7685 9037 9379
 7992 7918 9105
 9175 7995 9394
 9304 8723 9473
 7608 7605 9032
 8971 7482 9563
 9374 8398 9448
 8198 9194 9445
 7906 7902 9348
 9381 9094 9409
 9503 9008 9510
 8559 8569 9402
 9171 7778 9173
 9298 8561 9299
 7620 7678 9099
 9123 8444 9530
 7476 154 9009
 155 7469 9009
 9728 8415 9748
 8656 8361 9189
 8875 9433 9434
 8105 8281 9376
 8596 9029 9451
 8605 9215 9463
 7475 152 9003
 8191 9094 9381
 8088 8218 9316
 8096 8041 9316
 7967 7957 9168
 8818 8892 9540
 8378 8572 9124
 7945 7949 9124
 8688 8651 9498
 8990 8683 9541
 7729 8780 9026
 8320 9347 9474
 8120 9049 9399
 8325 8615 9377
 8001 8322 9377
 7657 7602 9449
 7478 140 9019
 9129 9387 9442
 8570 8568 9404
 9453 7485 9607
 8953 8312 9755
 8941 7710 9858
 7840 7837 9410
 7547 9375 9467
 7859 7861 9074
 7663 7667 8982
 9189 9190 9469
 8417 8380 9371
 8123 7815 9120
 9013 7470 9485
 7963 7961 9154
 7926 7923 9115
 8265 8351 9408
 8227 8159 8981
 7697 8012 9413
 9368 8607 9421
 8611 8824 9354
 9292 9520 9683
 9138 9137 9430
 8109 8145 9184
 8751 8203 9462
 8857 9346 9457
 9168 9167 9388
 8748 9591 9669
 7957 7951 9167
 8260 8199 9617
 8663 8191 9381
 8179 8816 9134
 7594 7596 9425
 7961 7884 9152
 9229 8238 9374
 8091 8300 9351
 9049 8562 9399
 8210 7823 9418
 7455 7486 7487
 8607 9503 9510
 7997 7896 9328
 9331 9083 9456
 9377 8615 9445
 7627 7624 9100
 8596 9451 9607
 8153 8154 9204
 8139 9461 9536
 8442 8854 9116
 8683 8440 9116
 7833 8194 9481
 7839 7835 9481
 8892 7681 9402
 8713 8973 9488
 7841 7844 9486
 8776 9444 9525
 8755 8660 9793
 7662 7660 9055
 8640 8585 9046
 9282 9281 9437
 8223 8225 9125
 8304 8475 9161
 9199 8762 9428
 7524 7521 9030
 8464 8296 9097
 7785 7786 9265
 8579 8581 9414
 7999 7993 9278
 7883 7968 9283
 135 136 9007
 7803 7800 9113
 8723 8185 9113
 8601 8603 9062
 9302 8772 9412
 9330 8599 9375
 9231 8852 9329
 7957 9167 9168
 9195 7651 9386
 8993 9384 9529
 8400 8653 9448
 9137 9136 9430
 9111 8640 9395
 159 160 9366
 131 130 9367
 8034 7836 9501
 8327 8330 9280
 8694 8900 9624
 8769 9304 9473
 9115 9114 9444
 7614 9081 9405
 9008 7456 9510
 7961 9152 9154
 8405 8407 9322
 9650 8472 9841
 7548 7547 9467
 9281 8202 9437
 8313 9155 9380
 8573 9109 9396
 8730 9286 9287
 9033 8819 9401
 8470 8574 9436
 8644 8313 9380
 8430 8309 9048
 7677 7496 9373
 8655 8341 9042
 150 151 9499
 8518 8408 9130
 8450 8002 9266
 8653 8717 9519
 8562 8838 9399
 9360 8605 9382
 8800 9649 9653
 8731 8732 9482
 8030 8096 9277
 7763 7466 9007
 9042 8339 9043
 7821 9077 9418
 7844 9143 9486
 8638 9224 9465
 8246 8345 9432
 9210 8168 9411
 7520 7741 9400
 8026 8036 9442
 9160 9376 9516
 8687 8956 9806
 8201 9227 9440
 8747 8745 9086
 8258 8398 9374
 7807 7805 9122
 138 137 9016
 8649 9400 9498
 9815 9172 9843
 8783 8464 9492
 8269 8994 9648
 9174 9175 9430
 8816 8815 9565
 8441 8817 9500
 8446 7577 9104
 9136 9174 9430
 8606 9359 9362
 9152 9153 9465
 158 7460 9021
 8664 8678 9522
 8848 8849 9466
 7921 9114 9115
 9125 9118 9489
 9428 8762 9524
 9105 9106 9107
 8721 9419 9420
 7994 7915 9092
 8725 9205 9450
 8954 8498 9807
 9418 8735 9489
 7606 7614 9405
 8312 8953 9824
 7965 8029 9450
 7651 7744 9386
 7763 9007 9503
 7662 9055 9056
 9336 8731 9415
 8733 9352 9416
 9178 8617 9446
 8610 8657 9107
 8349 8288 9244
 9364 8736 9422
 7664 7662 9056
 134 133 9438
 9289 8613 9380
 9314 7724 9468
 9038 9413 9483
 8148 8151 9301
 9222 9223 9447
 7762 9179 9446
 8371 8329 9208
 8670 9000 9001
 7795 7792 9285
 8609 9169 9512
 8171 8119 9349
 9419 8204 9484
 9141 8633 9627
 144 7458 9535
 8686 8763 9609
 8800 9403 9649
 9415 8731 9482
 9391 8999 9506
 8929 8930 9675
 8912 8913 9520
 8100 8235 9461
 9183 9445 9521
 8701 8909 9560
 8320 9474 9545
 8638 9465 9532
 9224 9154 9465
 9403 8492 9649
 8017 9415 9482
 7699 7608 9032
 9223 8254 9447
 7679 8987 9574
 9027 8596 9607
 8221 8473 9225
 8754 8301 9225
 8249 8252 9539
 9221 9220 9562
 9179 9178 9446
 144 143 9528
 7740 7757 9090
 9276 9236 9440
 9193 9305 9426
 9375 9062 9467
 9402 8569 9497
 9207 9259 9455
 8772 8773 9491
 9154 9152 9465
 9216 8449 9469
 7902 7900 9348
 8753 9222 9447
 8800 9235 9403
 8791 9165 9406
 8925 9641 9871
 8545 8247 9536
 8169 7820 9149
 7622 7620 9099
 7716 7713 9044
 8993 9529 9612
 9198 9199 9428
 8599 8601 9375
 8938 8880 9759
 155 7454 9476
 9254 8090 9472
 8966 8202 9670
 8732 9431 9482
 9259 8760 9455
 8597 9314 9468
 8916 9005 9562
 9422 8736 9423
 8041 8088 9316
 8850 9404 9495
 7949 8378 9124
 8651 8649 9498
 9461 8763 9536
 8746 8976 9546
 8839 8744 9546
 9408 8647 9496
 8689 9200 9595
 8238 8258 9374
 8451 9355 9428
 9241 9216 9469
 8322 8325 9377
 7602 7604 9449
 9353 8391 9452
 8254 9414 9447
 9114 8616 9444
 8870 9004 9464
 9075 8384 9389
 9410 7839 9490
 8574 9254 9472
 8168 8297 9411
 9227 9276 9440
 8523 8404 9538
 9491 9354 9766
 8465 8395 9540
 8380 8655 9371
 8097 8047 9537
 8601 9062 9375
 8767 8964 9655
 7923 7921 9115
 9196 9386 9500
 154 155 9009
 7638 7636 9554
 8547 8694 9040
 7613 7730 9247
 9365 7501 9429
 8607 7765 9503
 7759 9100 9470
 8657 8611 9354
 8157 8158 9263
 8161 8213 9263
 9526 8184 9746
 8969 7475 9003
 8762 8790 9524
 8892 9402 9497
 8197 9477 9478
 8950 8755 9793
 8515 8418 9555
 8461 9082 9555
 8721 8594 9419
 9211 9212 9523
 9299 8948 9508
 9251 8250 9775
 9190 9241 9469
 8785 9547 9605
 9362 8775 9493
 9236 8761 9440
 8991 8830 9571
 9386 8441 9500
 9107 8657 9517
 8668 8681 9559
 8057 9312 9487
 8310 9107 9517
 9220 8917 9562
 8640 9047 9395
 7823 7821 9418
 8510 8526 9547
 8516 8861 9341
 7622 9099 9100
 9180 9181 9496
 8575 8671 9483
 7624 7622 9100
 8154 8157 9204
 9320 8942 9527
 8569 8848 9497
 8794 8971 9563
 8440 8442 9116
 8540 8538 9342
 7835 7833 9481
 8181 8954 9551
 7892 7798 9036
 8182 8019 9036
 8613 9160 9516
 9379 9378 9479
 9189 9469 9531
 9413 8575 9483
 9287 7652 9494
 8979 9315 9485
 7838 7841 9486
 9355 9198 9428
 8450 9266 9455
 9420 9484 9545
 8735 8223 9125
 9278 9277 9480
 8475 8804 9161
 7804 7785 9265
 7993 8010 9278
 7747 9303 9390
 8185 7803 9113
 9186 8448 9454
 9053 8032 9718
 8084 8751 9665
 9068 9070 9495
 8939 8726 9490
 9089 8799 9652
 7454 8989 9476
 8398 8400 9448
 9004 7463 9464
 9457 8456 9479
 8726 9410 9490
 8369 8130 9050
 8783 9534 9668
 9400 7741 9498
 8448 9320 9527
 9465 9153 9532
 7653 7639 9577
 7642 7710 9577
 8219 8211 9127
 9041 7698 9543
 8578 9408 9496
 8900 8754 9511
 7836 7838 9501
 9106 8610 9107
 8763 9461 9609
 7793 8701 9560
 7780 7777 9560
 8615 8327 9280
 8854 8964 9602
 9484 8589 9545
 9383 8730 9494
 8963 8515 9555
 8456 9379 9479
 9378 8642 9479
 8639 9129 9513
 8558 9553 9805
 9404 7726 9495
 9572 8717 9625
 7501 7500 9429
 8801 9298 9508
 8383 8755 9034
 8728 8729 9492
 8252 9412 9491
 7757 9056 9471
 7650 7679 9574
 7669 7649 9574
 9315 8652 9485
 8711 9092 9460
 9322 8751 9538
 8733 9416 9417
 7761 9038 9483
 9285 8338 9473
 8230 8457 9126
 7838 9486 9501
 7466 135 9007
 9412 8772 9491
 7629 9297 9509
 9519 8717 9572
 9226 8589 9484
 9032 7603 9688
 8243 8289 9260
 9201 8017 9569
 8766 9331 9456
 8201 9440 9533
 9500 8817 9553
 8386 8385 9589
 8197 9148 9477
 8643 9196 9500
 130 131 9014
 9129 9432 9513
 8196 9307 9818
 9181 8578 9496
 9090 7757 9662
 8697 8429 9573
 8192 8260 9407
 7851 9395 9756
 9047 9046 9689
 8010 8030 9277
 9013 9485 9576
 8010 9277 9278
 9455 8760 9523
 7532 7494 9606
 8637 7752 9606
 9452 8391 9475
 8101 8042 9592
 8972 7677 9373
 7782 7780 9583
 8261 9392 9698
 9103 9458 9459
 9251 8905 9814
 8405 9322 9538
 8709 8708 9587
 9130 8517 9710
 9097 8728 9492
 9384 7460 9529
 151 7459 9499
 7741 9357 9507
 7761 9483 9542
 9700 9568 9717
 8824 8905 9539
 8464 9097 9492
 8430 9048 9059
 9020 8508 9685
 9323 7762 9580
 8672 8687 9610
 9121 7807 9122
 8760 9211 9523
 9483 8671 9542
 8768 8753 9549
 8214 9040 9624
 7465 8956 9672
 8614 8443 9611
 7745 7669 9611
 8572 9381 9409
 7726 9068 9495
 9504 8852 9667
 9489 9118 9558
 9103 9104 9144
 9444 8616 9525
 9170 8291 9525
 8346 8727 9519
 9535 8884 9732
 7864 7860 9593
 9380 8613 9516
 8576 9411 9600
 8167 8271 9206
 8209 8165 9206
 8697 9490 9854
 8572 8506 9544
 9074 8566 9502
 8483 8831 9598
 8235 9269 9609
 9469 8449 9531
 9103 9144 9458
 8451 9428 9524
 9085 9084 9542
 8711 7994 9092
 9277 8096 9427
 8082 8136 9619
 9197 8320 9545
 8466 9295 9791
 9463 9183 9548
 9440 8761 9533
 8183 9074 9502
 9303 8587 9390
 8412 8907 9626
 157 158 9021
 8770 8769 9556
 8700 8606 9493
 8944 8609 9512
 8350 8682 9608
 9148 8903 9477
 8073 9282 9604
 9443 9123 9530
 8730 9287 9494
 8096 9356 9427
 9183 9521 9548
 7704 8337 9615
 8382 7717 9001
 8692 8638 9532
 8149 8269 9648
 8967 8968 9772
 8727 9448 9519
 8618 8785 9687
 9448 8653 9519
 9063 8500 9566
 8449 9258 9531
 9103 8446 9104
 9457 9479 9552
 132 7461 9439
 7661 8982 9658
 163 162 7455
 9582 8847 9868
 9268 8121 9534
 9438 133 9439
 8984 8844 9642
 8795 8371 9208
 9450 8364 9518
 8976 7479 9713
 8450 9455 9523
 145 144 9638
 9120 9123 9443
 9088 9089 9652
 9382 8605 9463
 8957 8688 9507
 9062 8664 9522
 8841 9728 9748
 7736 7718 9066
 9701 8876 9789
 8519 8859 9618
 9381 8572 9544
 7750 8421 9028
 8302 7751 9028
 9395 7851 9847
 8913 8932 9520
 7901 7981 9651
 9142 9141 9561
 9372 7690 9504
 9567 8260 9617
 7851 7830 9642
 8702 8938 9665
 9180 9496 9550
 9121 9122 9123
 8882 9650 9841
 8301 8221 9225
 8376 8249 9539
 9096 7755 9552
 8034 9501 9561
 7679 7659 9658
 8751 9322 9665
 8506 8924 9544
 9153 8124 9532
 8986 8553 9618
 8268 7740 9090
 7584 7587 9622
 9234 8201 9533
 8210 9489 9558
 8436 8438 9578
 9163 8939 9573
 143 144 9535
 8643 9500 9553
 9298 9299 9508
 7898 7997 9632
 8964 8478 9655
 8479 8925 9655
 8666 9698 9845
 7960 8929 9675
 9273 9272 9604
 8199 9204 9506
 8659 8725 9518
 8710 8639 9513
 8785 8422 9798
 9280 8827 9599
 9080 9372 9504
 8247 8139 9536
 9312 8310 9517
 8476 8169 9149
 8663 9381 9544
 8670 8915 9515
 8761 8788 9533
 9150 8282 9634
 9086 9087 9640
 8204 9226 9484
 9479 8642 9552
 9487 9312 9517
 8644 9380 9516
 143 7467 9528
 8872 9015 9774
 8654 9443 9530
 8287 9657 9748
 9297 9296 9588
 8734 8733 9417
 9459 9390 9564
 9246 8466 9575
 8734 9417 9505
 9319 7863 9636
 7460 9366 9529
 7500 7462 9692
 8591 9333 9571
 9120 9121 9123
 9321 7899 9651
 9684 8838 9690
 7 7485 9453
 8444 9270 9530
 9496 8647 9550
 7482 8971 9792
 7505 7508 9641
 7721 9647 9729
 7609 9085 9613
 8744 8746 9546
 9118 8662 9558
 8959 8549 9650
 8403 8472 9650
 7678 7618 9646
 9495 9070 9557
 8384 9034 9035
 9043 7716 9044
 9436 8574 9595
 8625 9337 9480
 8195 9290 9597
 8789 9308 9661
 9204 8157 9391
 8358 8354 9628
 8850 9495 9557
 8391 9156 9475
 7636 7634 9654
 9232 8256 9633
 8616 9170 9525
 8661 8302 9397
 8063 8080 9670
 8202 8065 9670
 9454 8448 9527
 8384 9035 9389
 9445 8615 9521
 7495 9027 9739
 8606 9362 9493
 9427 8625 9480
 8404 8405 9538
 9031 8556 9602
 8395 8462 9540
 8047 8057 9537
 9485 8652 9576
 8184 9526 9844
 9432 8345 9513
 9277 9427 9480
 9041 9543 9840
 8564 9001 9264
 9512 9169 9736
 8287 8224 9657
 9082 8722 9664
 8994 8993 9612
 7765 7763 9503
 7652 7638 9554
 8998 8592 9838
 8551 8547 9040
 7721 7613 9247
 9433 8803 9434
 8688 9498 9507
 8592 8370 9838
 8176 8242 9623
 8786 8298 9623
 9525 8291 9581
 8934 8937 9683
 7601 8641 9688
 8589 9197 9545
 9498 7741 9507
 8158 8161 9263
 7691 8970 9622
 9084 7761 9542
 9467 9062 9522
 8736 8820 9423
 8017 9482 9569
 8740 9135 9603
 8769 9473 9556
 8291 9187 9581
 7564 9467 9522
 8438 8437 9629
 8482 8799 9629
 9337 9117 9620
 8901 7506 9641
 156 9476 9692
 7462 157 9692
 8858 8857 9639
 9058 8430 9059
 9102 9103 9459
 9191 9193 9625
 8656 9189 9531
 7582 7584 9709
 7698 8828 9543
 8619 8618 9790
 8346 9519 9572
 8418 8461 9555
 8955 8646 9677
 8511 8901 9677
 9218 9454 9527
 8987 8614 9611
 8725 9450 9518
 7824 7826 9689
 9425 8347 9557
 8177 8275 9704
 9522 8678 9616
 8393 8423 9696
 7494 7487 9734
 139 7457 9713
 7479 140 9713
 8922 8643 9553
 8943 8774 9777
 9447 9414 9549
 8698 8668 9559
 9127 9126 9385
 7585 9101 9643
 9055 8451 9524
 8633 9327 9627
 8517 8505 9710
 8678 8707 9616
 8978 8337 9761
 8552 8661 9441
 7590 9119 9646
 8683 9116 9541
 8666 8459 9721
 8842 8516 9341
 8735 9125 9489
 7479 8976 9839
 8592 8985 9745
 8642 9096 9552
 8174 9238 9669
 9209 8216 9707
 9140 9138 9719
 8282 9098 9716
 7706 9398 9790
 7575 7689 9714
 8196 7890 9705
 8790 9471 9524
 8551 8942 9846
 9513 8345 9594
 8747 9086 9640
 8647 9293 9550
 7471 142 9732
 9471 9055 9524
 8818 9540 9760
 8753 9447 9549
 8677 8953 9755
 9501 9142 9561
 8137 8214 9624
 9087 7743 9640
 8793 8794 9563
 8739 8966 9736
 8886 8540 9342
 8691 8898 9773
 8648 8181 9551
 8019 7892 9036
 8754 9225 9635
 9100 9099 9470
 8083 9180 9550
 9204 9391 9506
 7955 9065 9708
 7455 7488 9621
 8989 7454 9772
 8871 8870 9682
 9551 8710 9594
 9090 9662 9725
 8860 8272 9678
 8996 8889 9797
 9390 9389 9564
 9398 7706 9822
 9348 7900 9632
 8600 8598 9730
 8820 8267 9762
 8866 9464 9867
 8692 9532 9596
 9531 9258 9591
 9015 147 9774
 8206 8102 9747
 9056 9055 9471
 9366 8869 9529
 7860 7858 9751
 7826 7828 9756
 7887 9132 9720
 9516 9376 9570
 8787 8989 9772
 8941 8743 9740
 8741 8873 9740
 9421 8607 9510
 7593 8796 9066
 8839 9016 9829
 9164 8644 9570
 8079 8077 9759
 8759 8737 9753
 7878 8086 9749
 8566 7869 9749
 8957 9507 9614
 8453 8777 9754
 9244 9245 9586
 8680 8590 9051
 9620 9117 9694
 9156 8899 9475
 8590 8369 9050
 9262 8375 9690
 8101 9592 9660
 8337 7701 9761
 7639 7642 9577
 8710 9513 9594
 8414 8677 9742
 8211 8212 9127
 9043 9044 9045
 129 7482 9792
 7484 128 9792
 8423 9309 9666
 8502 8666 9781
 9234 9533 9597
 8463 8550 9765
 9394 9284 9819
 7777 7793 9560
 8958 8510 9547
 8855 8792 9784
 146 7453 9774
 8132 8699 9693
 9042 9045 9509
 9414 8581 9549
 7724 9323 9731
 8590 9050 9051
 9382 9463 9548
 7498 7499 9768
 8077 8075 9788
 8080 8061 9796
 8384 8383 9034
 9532 8124 9596
 8654 9530 9598
 9057 9058 9821
 7839 9481 9854
 7477 9013 9576
 7649 7650 9574
 8929 8719 9724
 9509 9297 9588
 8970 8853 9622
 9213 8826 9660
 8718 8825 9803
 8363 8786 9770
 8212 8230 9126
 8498 8497 9807
 8347 9112 9645
 9193 9426 9572
 9590 9589 9851
 9547 8785 9798
 8212 9126 9127
 8805 8836 9813
 158 7462 9836
 9533 8788 9597
 8439 8659 9809
 8776 9525 9581
 8905 8612 9814
 9239 8357 9835
 9624 8900 9779
 9589 8507 9851
 8704 8703 9568
 9184 8145 9697
 9530 9270 9598
 8272 8243 9260
 8059 8048 9853
 8920 8822 9816
 8813 8812 9582
 8385 8507 9589
 7463 9702 9867
 8447 9388 9733
 8598 8597 9773
 9661 9308 9751
 9231 8386 9667
 9288 8902 9799
 8656 9531 9591
 9423 8820 9424
 9426 8346 9572
 8183 9502 9735
 8353 9382 9548
 7502 9369 9768
 9341 8861 9392
 9474 9420 9545
 8881 9394 9819
 9070 9425 9557
 9480 9337 9620
 8429 8496 9573
 9206 8842 9737
 7456 9018 9601
 8557 8990 9842
 8843 9395 9847
 9543 8784 9840
 8402 9586 9603
 8632 8633 9861
 8652 8752 9576
 9510 7456 9601
 9376 8281 9570
 8184 9067 9746
 8080 9512 9736
 8556 9541 9852
 9042 9043 9045
 7482 130 9014
 8922 9553 9837
 8655 9042 9509
 8705 8692 9596
 8577 9246 9575
 7752 7532 9606
 8042 8450 9592
 8345 9237 9594
 9131 8210 9558
 9539 8252 9766
 8526 8779 9605
 164 163 9621
 9006 7479 9839
 9431 8732 9678
 8969 9003 9672
 9523 9212 9592
 9502 8825 9735
 7786 7782 9583
 8721 9420 9634
 8413 9361 9631
 8593 9188 9735
 9507 9357 9614
 9348 9632 9775
 8755 8950 9828
 9039 8557 9842
 9177 9020 9857
 8999 8998 9691
 7585 9643 9711
 8976 8833 9839
 8338 9271 9556
 7706 9134 9822
 9664 8722 9764
 8708 8921 9587
 9558 8662 9636
 9146 8592 9745
 9388 9167 9675
 9446 8709 9580
 9119 8571 9817
 9417 9202 9505
 9307 9306 9818
 8860 9678 9781
 8954 8576 9600
 8738 9243 9779
 8500 9435 9566
 7609 9613 9699
 9481 8834 9854
 8644 9516 9570
 9333 8193 9571
 8777 8776 9581
 133 132 9439
 8724 8658 9715
 7710 7654 9858
 9158 8910 9835
 9290 9234 9597
 8312 9147 9755
 8812 8814 9860
 9421 9510 9601
 8804 8803 9708
 9278 9480 9620
 9073 7723 9763
 8615 9280 9521
 8402 9244 9586
 8674 8672 9610
 9478 9295 9724
 9228 8813 9769
 9702 8865 9867
 9258 8174 9591
 8859 9460 9862
 7699 9032 9761
 9161 8804 9526
 8748 8656 9591
 7478 9019 9743
 9716 9098 9810
 8802 8965 9656
 9022 7484 9771
 9095 7706 9790
 7725 9031 9602
 8443 7745 9611
 9520 8932 9683
 9534 8121 9668
 9162 9161 9526
 9598 8831 9657
 9133 8312 9824
 163 7455 9621
 9242 8487 9686
 9001 7717 9264
 8328 9088 9652
 9616 8707 9680
 9291 8143 9812
 7888 7864 9593
 8124 9325 9596
 9395 9047 9756
 9275 9166 9840
 8948 8675 9859
 7804 9339 9827
 9272 8073 9604
 9473 8338 9556
 9607 7485 9739
 8165 8167 9206
 8786 8965 9335
 8454 8759 9843
 9389 9035 9564
 9270 8483 9598
 9318 9319 9794
 7732 9396 9587
 8823 8920 9757
 9208 8328 9701
 9085 9542 9613
 7493 7490 9679
 9163 9573 9777
 8090 8082 9619
 9175 8636 9719
 9135 8402 9603
 8492 9221 9649
 9157 9158 9835
 9683 8937 9812
 8676 9421 9601
 8956 8957 9672
 9609 9269 9659
 8795 9208 9701
 9350 7564 9616
 9187 8228 9717
 7657 9449 9715
 9411 8297 9757
 8953 8764 9720
 8989 9429 9848
 9345 8250 9814
 9529 8869 9612
 8083 9550 9637
 8707 8835 9680
 9512 8080 9796
 7762 9446 9580
 8411 8412 9626
 8155 9261 9644
 8771 8750 9850
 8297 8350 9608
 7593 8950 9793
 8671 9310 9613
 9588 9296 9671
 8281 9184 9663
 9434 8490 9723
 9550 9293 9637
 9344 7609 9699
 9493 8775 9782
 7564 9522 9616
 8848 9466 9834
 9555 9082 9674
 9511 8754 9635
 9601 9018 9676
 8434 7704 9615
 9140 9719 9861
 9101 9102 9643
 9645 9112 9738
 9552 7755 9639
 8200 8149 9648
 8706 9000 9515
 9271 7804 9827
 143 9535 9732
 8286 7788 9783
 8450 9523 9592
 8928 8919 9721
 9559 7730 9630
 8825 9502 9803
 7477 9576 9681
 9176 8083 9637
 8658 9466 9715
 8657 9354 9712
 9548 9521 9599
 8986 8189 9745
 9357 8413 9614
 8858 9639 9714
 8567 9162 9746
 9466 8658 9834
 7492 7498 9768
 7730 9026 9630
 9474 9150 9634
 8574 9472 9595
 8698 9559 9630
 8889 8888 9644
 9209 9707 9802
 9283 8318 9819
 8256 8285 9633
 8487 8807 9686
 8796 7736 9066
 9102 9459 9564
 9460 8311 9862
 9482 9431 9569
 9685 8882 9841
 8553 8519 9618
 9319 9636 9696
 9296 7641 9671
 8968 8969 9631
 7751 7750 9028
 9584 7887 9720
 8216 9191 9625
 8815 8286 9635
 8921 8801 9750
 8899 8865 9702
 7899 7901 9651
 8057 9487 9850
 9461 8235 9609
 8698 9630 9744
 8328 9652 9701
 8959 8178 9704
 9131 9558 9636
 8757 9399 9684
 9164 9570 9663
 7453 145 9638
 9576 8752 9681
 9327 8845 9627
 7999 9278 9620
 9570 8281 9663
 9003 7465 9672
 9540 8462 9760
 9460 8859 9767
 8476 9149 9727
 7830 7832 9642
 8209 9206 9737
 8375 9242 9684
 9020 7471 9857
 7659 7661 9658
 9634 8282 9716
 8814 9528 9860
 9040 8694 9624
 9401 8819 9837
 9102 9564 9643
 9392 8861 9698
 7587 7691 9622
 8667 8436 9578
 8676 9601 9676
 8242 8490 9656
 9592 9212 9660
 9293 8704 9637
 7999 9620 9694
 9542 8671 9613
 9397 9398 9585
 7900 7898 9632
 8195 9597 9661
 8478 8479 9655
 9635 9225 9831
 8803 9433 9708
 8813 9582 9868
 9561 9141 9627
 8846 8747 9640
 9457 9552 9639
 9657 8831 9748
 9247 8681 9647
 9344 9699 9787
 9518 8686 9659
 9295 8535 9724
 8825 8705 9673
 8032 9209 9802
 7863 9131 9636
 8856 8858 9851
 8705 9596 9673
 8206 9747 9813
 9149 7877 9727
 8824 9539 9766
 8849 8850 9645
 9332 7585 9711
 8415 8287 9748
 8709 9587 9849
 8685 9567 9617
 9212 9213 9660
 9640 7743 9769
 8857 9457 9639
 9065 8184 9844
 8790 8791 9662
 9350 9616 9680
 9771 8891 9789
 8820 9762 9832
 8658 8465 9834
 9557 8347 9645
 9781 8666 9845
 9564 9035 9643
 7757 9471 9662
 8750 9537 9850
 8722 9343 9764
 9596 9325 9673
 9430 9175 9719
 9018 7478 9676
 9476 8989 9848
 7667 9095 9687
 7506 7505 9641
 7888 9593 9705
 8696 9164 9663
 9660 8826 9747
 8549 8403 9650
 7618 7590 9646
 8163 9778 9830
 8990 9541 9842
 9420 9474 9634
 8888 8981 9644
 9573 8496 9777
 8834 8697 9854
 9117 8695 9694
 9176 9637 9700
 8788 8789 9661
 9079 9589 9590
 8354 8793 9628
 8358 9424 9832
 9431 8667 9569
 9764 9343 9829
 7652 9554 9808
 9521 9280 9599
 9309 8911 9666
 7634 7668 9654
 9017 7477 9681
 8065 8063 9670
 8850 9557 9645
 7723 9350 9680
 8908 8907 9776
 7490 7492 9679
 9219 8917 9220
 8121 9275 9668
 9687 9605 9800
 8749 9262 9690
 7488 7495 9739
 9671 7641 9758
 8816 9585 9822
 8984 8034 9823
 9076 9371 9671
 8784 8783 9668
 9632 9252 9775
 9325 8593 9673
 8263 8988 9804
 9000 8670 9515
 9810 7952 9869
 8869 8995 9612
 9614 8413 9631
 8811 8676 9676
 8655 9509 9588
 9238 9239 9669
 9613 9310 9699
 8224 8654 9657
 9023 7472 9664
 8990 8557 9805
 9637 8704 9700
 8557 8558 9805
 8717 8716 9707
 9005 8 9562
 9506 8999 9691
 8909 8910 9785
 9618 8859 9862
 9274 8163 9830
 7471 9732 9857
 9322 8702 9665
 8898 9383 9730
 8752 8768 9681
 9167 7960 9675
 8919 8261 9698
 8298 8176 9623
 9112 7657 9738
 9371 8655 9588
 8932 8934 9683
 9342 8715 9778
 7603 7601 9688
 9158 7786 9785
 9708 9065 9844
 8785 9605 9687
 8944 9512 9796
 9487 9517 9712
 9098 7952 9810
 9202 8438 9505
 8819 8818 9760
 8250 9348 9775
 8434 9615 9786
 8437 8482 9629
 9678 8732 9781
 9553 8817 9805
 9080 9504 9667
 9644 9261 9797
 8865 8866 9867
 8902 8591 9799
 8749 9690 9741
 7690 7582 9709
 8637 8958 9798
 8889 9644 9797
 9665 8938 9788
 9383 8604 9730
 8849 9645 9738
 8646 8511 9677
 8199 9506 9617
 8675 8872 9695
 157 156 9692
 8950 9332 9828
 8773 9487 9712
 8268 9090 9726
 9643 9035 9711
 8195 9661 9751
 9371 9588 9671
 8090 9619 9820
 9061 7759 9706
 7877 7824 9689
 9340 8698 9744
 8699 8757 9686
 9581 9187 9717
 9608 8823 9757
 8662 8393 9696
 8591 9571 9799
 9351 8548 9795
 9424 8358 9864
 9664 7472 9674
 9633 8285 9816
 9602 8556 9852
 8994 9612 9752
 8852 9231 9667
 8988 9436 9804
 8779 8982 9800
 9310 8863 9699
 9089 9505 9863
 8505 8983 9710
 8963 9555 9674
 9076 9671 9758
 8654 9598 9657
 8845 8984 9823
 7667 9687 9800
 8951 8959 9704
 8459 8476 9721
 9471 8790 9662
 140 139 9713
 9260 9431 9678
 9433 7955 9708
 8711 9460 9767
 8228 9176 9700
 9407 8260 9865
 8885 8749 9741
 9385 9126 9703
 8178 8177 9704
 8801 9508 9750
 9245 8415 9728
 8815 9635 9831
 8145 8782 9697
 7755 7575 9714
 9026 8780 9630
 8858 9590 9851
 9597 8788 9661
 7890 7888 9705
 8991 8840 9870
 8504 8991 9870
 7 9453 9475
 9019 9020 9743
 8641 9344 9787
 8686 9609 9659
 9639 7755 9714
 8871 9682 9825
 8563 9351 9795
 9662 8791 9725
 8720 8721 9716
 8750 8774 9826
 9319 9666 9794
 9294 7999 9694
 8995 8996 9752
 9023 9664 9764
 9436 9595 9804
 8489 8132 9693
 8890 9313 9859
 7851 9642 9847
 9126 8457 9703
 9551 8954 9807
 8846 9640 9769
 9621 7488 9739
 142 143 9732
 8137 9624 9779
 9252 9251 9775
 8985 8986 9745
 8719 9478 9724
 8659 9518 9659
 9795 8548 9846
 8353 9548 9599
 8604 8600 9730
 9699 8863 9787
 8695 8881 9780
 8267 8353 9762
 9508 8373 9750
 9541 9116 9852
 9630 8780 9744
 8492 7733 9855
 9599 8827 9762
 9587 9396 9849
 8227 9342 9778
 9240 8447 9733
 8102 8101 9747
 7483 9514 9653
 9778 8715 9830
 9067 8567 9746
 8189 9146 9745
 7499 7502 9768
 7858 8195 9751
 8907 8748 9776
 7828 7851 9756
 8765 8766 9729
 9239 8908 9776
 9169 8739 9736
 9138 9430 9719
 8774 9163 9777
 8743 8741 9740
 9237 8414 9742
 9188 8183 9735
 8373 7746 9750
 7487 7489 9734
 9035 9034 9711
 8136 8079 9759
 8891 8795 9789
 9502 8566 9803
 9449 8724 9715
 8910 9158 9785
 9697 8782 9801
 9692 9476 9848
 8831 8841 9748
 8548 8551 9846
 8737 8864 9753
 7869 7878 9749
 8489 9693 9722
 9339 8770 9827
 9399 8838 9684
 9571 8830 9799
 8840 8453 9754
 9343 8839 9829
 9292 9683 9812
 9636 8662 9696
 7759 9470 9706
 8490 8489 9722
 8778 9076 9758
 9628 8793 9811
 7653 9071 9833
 8462 8922 9760
 7641 9267 9758
 7701 7699 9761
 9147 8893 9755
 9059 8904 9869
 7480 9023 9764
 9694 8695 9780
 8571 9073 9763
 8859 8520 9767
 9024 7481 9806
 9052 9053 9718
 8732 8502 9781
 9468 7724 9731
 7743 9228 9769
 8777 9581 9717
 8780 8209 9744
 8507 8463 9765
 8904 9810 9869
 8318 9294 9780
 147 146 9774
 7788 8268 9783
 8720 9716 9810
 8496 8943 9777
 9466 8849 9738
 8791 9406 9725
 8792 9072 9784
 7480 9764 9829
 9541 7676 9842
 8588 9274 9830
 128 129 9792
 8877 9771 9789
 9354 8824 9766
 9261 8200 9797
 8101 9660 9747
 9719 8636 9861
 8721 9634 9716
 7454 8967 9772
 8661 9397 9585
 8775 8951 9782
 8075 8084 9788
 9243 8137 9779
 7952 9321 9869
 8712 9618 9862
 8863 8977 9787
 8714 8434 9786
 8870 9464 9682
 9769 8813 9868
 8982 7667 9800
 8876 8877 9789
 9617 9506 9691
 8685 9617 9691
 8252 9491 9766
 9517 8657 9712
 8194 9318 9794
 8061 8059 9796
 8808 8875 9723
 9200 8263 9804
 8703 8504 9870
 9625 8717 9707
 9610 8687 9806
 8906 8718 9803
 8782 9407 9801
 8830 9288 9799
 8715 8363 9770
 9537 8750 9826
 8422 8637 9798
 8835 8855 9817
 8497 8710 9807
 8716 8879 9802
 9583 8909 9785
 9406 9172 9815
 9332 9711 9828
 8875 9434 9723
 9758 9267 9833
 7733 7728 9855
 9726 9725 9815
 8817 8990 9805
 8778 9758 9833
 9725 9406 9815
 8826 8805 9813
 9707 8716 9802
 8163 8227 9778
 8854 9602 9852
 7739 8706 9515
 9082 9664 9674
 9294 9694 9780
 8729 8439 9809
 8924 8555 9865
 8285 8498 9816
 7485 9621 9739
 8143 9292 9812
 8612 9345 9814
 8597 9468 9773
 8710 9551 9807
 9321 9059 9869
 8438 9629 9863
 8904 8720 9810
 8704 9568 9700
 9284 9283 9819
 9398 8619 9790
 9575 8466 9791
 9242 8757 9684
 8874 9057 9821
 8272 9260 9678
 8358 9628 9864
 8353 9599 9762
 8885 9795 9846
 9655 8925 9871
 8472 8811 9841
 9225 8473 9831
 8097 9537 9826
 9568 8777 9717
 8770 9556 9827
 159 158 9836
 9306 9250 9818
 9034 8755 9828
 9016 7480 9829
 9585 9398 9822
 8194 9794 9866
 8887 8889 9825
 8827 8358 9832
 9134 8816 9822
 9612 8995 9752
 8370 8685 9838
 8942 8885 9846
 8833 8847 9839
 8764 9584 9720
 8216 9625 9707
 8844 8843 9847
 9132 9133 9824
 9794 8911 9866
 8682 8454 9843
 9561 9627 9823
 8048 8097 9853
 9729 8766 9856
 7654 7670 9858
 8558 9401 9837
 8829 9424 9864
 8311 8712 9862
 8636 8632 9861
 9595 9200 9804
 8861 8860 9845
 8911 8834 9866
 8953 9720 9824
 9481 8194 9866
 8847 8846 9868
 7508 8767 9871
 8357 9157 9835
 9267 7653 9833
 9071 8778 9833
 9691 8998 9838
 9109 9580 9849
 9116 8854 9852
 8884 9177 9857
 7676 9039 9842
 9477 8903 9791
 9166 9041 9840
 9424 8820 9832
 9747 8826 9813
 8757 9242 9686
 9472 8090 9820
 7786 9583 9785
 8796 7593 9793
 9565 8815 9831
 9494 7652 9808
 9464 7463 9867
 9396 9109 9849
 9711 9034 9828
 9497 8848 9834
 8958 9547 9798
 8834 9481 9866
 8 9221 9562
 9642 8844 9847
 8084 9665 9788
 9732 8884 9857
 9162 9526 9746
 9580 8709 9849
 9647 8765 9729
 9648 8994 9752
 9695 8890 9859
 8297 9608 9757
 8804 9708 9844
 9627 8845 9823
 8903 9575 9791
 9762 8827 9832
 7481 9610 9806
 9528 7467 9860
 8748 9669 9776
 9490 7839 9854
 9429 7500 9848
 9669 9239 9776
 9020 9685 9743
 9685 8811 9743
 8860 9781 9845
 9526 8804 9844
 8766 9456 9856
 9698 8861 9845
 9090 9725 9726
 8034 9561 9823
 8793 9563 9811
 9537 8057 9850
 8490 9722 9723
 7467 9582 9860
 9741 8563 9795
 9722 8808 9723
 9629 9089 9863
 9556 9271 9827
 9666 8911 9794
 9682 8887 9825
 8268 9753 9783
 9605 8779 9800
 9582 8812 9860
 9753 8864 9783
 7500 9692 9848
 8885 9741 9795
 9628 8829 9864
 8473 9565 9831
 9770 8588 9830
 9720 9132 9824
 8685 9691 9838
 9754 8703 9870
 8846 9769 9868
 8811 9685 9841
 8767 9655 9871
 9763 8835 9817
 8759 9726 9815
 8571 9763 9817
 8555 9801 9865
 8675 9695 9859
 8715 9770 9830
 8840 9754 9870
 9801 9407 9865
 9505 8438 9863
 7 164 9621
 7485 7 9621
 7464 8916 8997
 8916 7464 9005
 9221 7483 9653
 9221 8492 9855
 9220 9221 9855
 9649 9221 9653

